POSCAR Generated by VLAtoms at MaterialsSquare.com
1.0
22.148999999999997 0 0
-11.0745 19.195799999999995 0
1.2246467991473533e-15 2.120365810580893e-15 20
C 
162 
Direct
0.07406037197373036 0.03700963283634962 0.49999999999999994 
0.03700963257587597 0.07401926515175196 0.49999999999999994 
0.07406037180008126 0.14812074360016253 0.49999999999999994 
0.037009632662700534 0.18513037643651217 0.49999999999999994 
0.07406037188690581 0.25923185488492273 0.49999999999999994 
0.037009632749525095 0.29624148772127235 0.49999999999999994 
0.18517148308484144 0.03700963283634962 0.49999999999999994 
0.14812074368698708 0.07401926515175196 0.49999999999999994 
0.18517148291119234 0.14812074360016253 0.49999999999999994 
0.14812074377381163 0.18513037643651217 0.49999999999999994 
0.18517148299801692 0.25923185488492273 0.49999999999999994 
0.14812074386063617 0.29624148772127235 0.49999999999999994 
0.2962825941959526 0.03700963283634962 0.49999999999999994 
0.25923185479809824 0.07401926515175196 0.49999999999999994 
0.29628259402230345 0.14812074360016253 0.49999999999999994 
0.25923185488492273 0.18513037643651217 0.49999999999999994 
0.29628259410912805 0.25923185488492273 0.49999999999999994 
0.2592318549717473 0.29624148772127235 0.49999999999999994 
0.07406037197373035 0.37034296616968293 0.49999999999999994 
0.03700963257587597 0.4073525984850853 0.49999999999999994 
0.07406037180008132 0.481454076933496 0.49999999999999994 
0.0370096326627006 0.5184637097698456 0.49999999999999994 
0.07406037188690592 0.5925651882182562 0.49999999999999994 
0.037009632749525234 0.6295748210546059 0.49999999999999994 
0.18517148308484147 0.37034296616968293 0.49999999999999994 
0.1481207436869871 0.4073525984850853 0.49999999999999994 
0.18517148291119245 0.481454076933496 0.49999999999999994 
0.14812074377381165 0.5184637097698456 0.49999999999999994 
0.185171482998017 0.5925651882182562 0.49999999999999994 
0.1481207438606363 0.6295748210546059 0.49999999999999994 
0.29628259419595254 0.37034296616968293 0.49999999999999994 
0.25923185479809824 0.4073525984850853 0.49999999999999994 
0.29628259402230356 0.481454076933496 0.49999999999999994 
0.2592318548849228 0.5184637097698456 0.49999999999999994 
0.2962825941091281 0.5925651882182562 0.49999999999999994 
0.25923185497174744 0.6295748210546059 0.49999999999999994 
0.0740603719737305 0.7036762995030165 0.49999999999999994 
0.03700963257587603 0.7406859318184188 0.49999999999999994 
0.0740603718000814 0.8147874102668294 0.49999999999999994 
0.03700963266270052 0.8517970431031789 0.49999999999999994 
0.0740603718869059 0.9258985215515896 0.49999999999999994 
0.037009632749525234 0.9629081543879391 0.49999999999999994 
0.18517148308484155 0.7036762995030165 0.49999999999999994 
0.14812074368698716 0.7406859318184188 0.49999999999999994 
0.18517148291119254 0.8147874102668294 0.49999999999999994 
0.14812074377381174 0.8517970431031789 0.49999999999999994 
0.1851714829980171 0.9258985215515896 0.49999999999999994 
0.14812074386063628 0.9629081543879391 0.49999999999999994 
0.2962825941959527 0.7036762995030165 0.49999999999999994 
0.25923185479809824 0.7406859318184188 0.49999999999999994 
0.2962825940223036 0.8147874102668294 0.49999999999999994 
0.2592318548849228 0.8517970431031789 0.49999999999999994 
0.2962825941091281 0.9258985215515896 0.49999999999999994 
0.25923185497174744 0.9629081543879391 0.49999999999999994 
0.40739370530706376 0.03700963283634962 0.49999999999999994 
0.37034296590920934 0.07401926515175196 0.49999999999999994 
0.40739370513341455 0.14812074360016253 0.49999999999999994 
0.3703429659960337 0.18513037643651217 0.49999999999999994 
0.4073937052202391 0.25923185488492273 0.49999999999999994 
0.3703429660828583 0.29624148772127235 0.49999999999999994 
0.5185048164181748 0.03700963283634962 0.49999999999999994 
0.48145407702032034 0.07401926515175196 0.49999999999999994 
0.5185048162445257 0.14812074360016253 0.49999999999999994 
0.4814540771071449 0.18513037643651217 0.49999999999999994 
0.5185048163313503 0.25923185488492273 0.49999999999999994 
0.48145407719396954 0.29624148772127235 0.49999999999999994 
0.629615927529286 0.03700963283634962 0.49999999999999994 
0.5925651881314314 0.07401926515175196 0.49999999999999994 
0.6296159273556368 0.14812074360016253 0.49999999999999994 
0.5925651882182561 0.18513037643651217 0.49999999999999994 
0.6296159274424613 0.25923185488492273 0.49999999999999994 
0.5925651883050805 0.29624148772127235 0.49999999999999994 
0.40739370530706365 0.37034296616968293 0.49999999999999994 
0.3703429659092093 0.4073525984850853 0.49999999999999994 
0.4073937051334146 0.481454076933496 0.49999999999999994 
0.37034296599603383 0.5184637097698456 0.49999999999999994 
0.40739370522023916 0.5925651882182562 0.49999999999999994 
0.3703429660828585 0.6295748210546059 0.49999999999999994 
0.5185048164181748 0.37034296616968293 0.49999999999999994 
0.4814540770203204 0.4073525984850853 0.49999999999999994 
0.5185048162445258 0.481454076933496 0.49999999999999994 
0.481454077107145 0.5184637097698456 0.49999999999999994 
0.5185048163313504 0.5925651882182562 0.49999999999999994 
0.4814540771939696 0.6295748210546059 0.49999999999999994 
0.6296159275292859 0.37034296616968293 0.49999999999999994 
0.5925651881314316 0.4073525984850853 0.49999999999999994 
0.6296159273556369 0.481454076933496 0.49999999999999994 
0.5925651882182562 0.5184637097698456 0.49999999999999994 
0.6296159274424614 0.5925651882182562 0.49999999999999994 
0.5925651883050809 0.6295748210546059 0.49999999999999994 
0.40739370530706376 0.7036762995030165 0.49999999999999994 
0.37034296590920934 0.7406859318184188 0.49999999999999994 
0.40739370513341466 0.8147874102668294 0.49999999999999994 
0.37034296599603395 0.8517970431031789 0.49999999999999994 
0.40739370522023927 0.9258985215515896 0.49999999999999994 
0.3703429660828585 0.9629081543879391 0.49999999999999994 
0.5185048164181749 0.7036762995030165 0.49999999999999994 
0.4814540770203204 0.7406859318184188 0.49999999999999994 
0.5185048162445258 0.8147874102668294 0.49999999999999994 
0.48145407710714505 0.8517970431031789 0.49999999999999994 
0.5185048163313504 0.9258985215515896 0.49999999999999994 
0.48145407719396954 0.9629081543879391 0.49999999999999994 
0.6296159275292861 0.7036762995030165 0.49999999999999994 
0.5925651881314316 0.7406859318184188 0.49999999999999994 
0.629615927355637 0.8147874102668294 0.49999999999999994 
0.5925651882182562 0.8517970431031789 0.49999999999999994 
0.6296159274424615 0.9258985215515896 0.49999999999999994 
0.5925651883050808 0.9629081543879391 0.49999999999999994 
0.7407270386403969 0.03700963283634962 0.49999999999999994 
0.7036762992425426 0.07401926515175196 0.49999999999999994 
0.7407270384667479 0.14812074360016253 0.49999999999999994 
0.7036762993293673 0.18513037643651217 0.49999999999999994 
0.7407270385535726 0.25923185488492273 0.49999999999999994 
0.7036762994161916 0.29624148772127235 0.49999999999999994 
0.8518381497515081 0.03700963283634962 0.49999999999999994 
0.8147874103536537 0.07401926515175196 0.49999999999999994 
0.851838149577859 0.14812074360016253 0.49999999999999994 
0.8147874104404782 0.18513037643651217 0.49999999999999994 
0.8518381496646834 0.25923185488492273 0.49999999999999994 
0.8147874105273027 0.29624148772127235 0.49999999999999994 
0.9629492608626191 0.03700963283634962 0.49999999999999994 
0.9258985214647647 0.07401926515175196 0.49999999999999994 
0.9629492606889699 0.14812074360016253 0.49999999999999994 
0.9258985215515894 0.18513037643651217 0.49999999999999994 
0.9629492607757947 0.25923185488492273 0.49999999999999994 
0.9258985216384139 0.29624148772127235 0.49999999999999994 
0.740727038640397 0.37034296616968293 0.49999999999999994 
0.7036762992425426 0.4073525984850853 0.49999999999999994 
0.740727038466748 0.481454076933496 0.49999999999999994 
0.703676299329367 0.5184637097698456 0.49999999999999994 
0.7407270385535725 0.5925651882182562 0.49999999999999994 
0.7036762994161918 0.6295748210546059 0.49999999999999994 
0.8518381497515082 0.37034296616968293 0.49999999999999994 
0.8147874103536537 0.4073525984850853 0.49999999999999994 
0.8518381495778591 0.481454076933496 0.49999999999999994 
0.8147874104404783 0.5184637097698456 0.49999999999999994 
0.8518381496646836 0.5925651882182562 0.49999999999999994 
0.8147874105273032 0.6295748210546059 0.49999999999999994 
0.9629492608626192 0.37034296616968293 0.49999999999999994 
0.9258985214647647 0.4073525984850853 0.49999999999999994 
0.96294926068897 0.481454076933496 0.49999999999999994 
0.9258985215515894 0.5184637097698456 0.49999999999999994 
0.9629492607757947 0.5925651882182562 0.49999999999999994 
0.9258985216384141 0.6295748210546059 0.49999999999999994 
0.7407270386403971 0.7036762995030165 0.49999999999999994 
0.7036762992425427 0.7406859318184188 0.49999999999999994 
0.7407270384667481 0.8147874102668294 0.49999999999999994 
0.7036762993293673 0.8517970431031789 0.49999999999999994 
0.7407270385535727 0.9258985215515896 0.49999999999999994 
0.7036762994161918 0.9629081543879391 0.49999999999999994 
0.8518381497515082 0.7036762995030165 0.49999999999999994 
0.8147874103536538 0.7406859318184188 0.49999999999999994 
0.8518381495778591 0.8147874102668294 0.49999999999999994 
0.8147874104404783 0.8517970431031789 0.49999999999999994 
0.8518381496646836 0.9258985215515896 0.49999999999999994 
0.814787410527303 0.9629081543879391 0.49999999999999994 
0.9629492608626194 0.7036762995030165 0.49999999999999994 
0.9258985214647648 0.7406859318184188 0.49999999999999994 
0.96294926068897 0.8147874102668294 0.49999999999999994 
0.9258985215515894 0.8517970431031789 0.49999999999999994 
0.9629492607757949 0.9258985215515896 0.49999999999999994 
0.9258985216384139 0.9629081543879391 0.49999999999999994 
