POSCAR Generated by VLAtoms at MaterialsSquare.com
1.0
22.148999999999997 0 0
-11.0745 19.195799999999995 0
1.2246467991473533e-15 2.120365810580893e-15 20
C 
162 
Direct
0.074060371974 	0.037009632836 	0.521827392023 
0.037009632576 	0.074019265152 	0.478195691215 
0.074060371800 	0.148120743600 	0.464670188479 
0.037009632663 	0.185130376437 	0.431236866883 
0.074060371887 	0.259231854885 	0.445040408744 
0.037009632750 	0.296241487721 	0.427236009977 
0.185171483085 	0.037009632836 	0.568773368091 
0.148120743687 	0.074019265152 	0.535352894854 
0.185171482911 	0.148120743600 	0.511616164601 
0.148120743774 	0.185130376437 	0.488394070501 
0.185171482998 	0.259231854885 	0.491986384839 
0.148120743861 	0.296241487721 	0.484393213575 
0.296282594196 	0.037009632836 	0.572756587753 
0.259231854798 	0.074019265152 	0.554982674608 
0.296282594022 	0.148120743600 	0.515599384337 
0.259231854885 	0.185130376437 	0.508023850219 
0.296282594109 	0.259231854885 	0.495969604538 
0.259231854972 	0.296241487721 	0.504022993257 
0.074060371974 	0.370342966170 	0.472123045140 
0.037009632576 	0.407352598485 	0.468065165507 
0.074060371800 	0.481454076933 	0.533245830621 
0.037009632663 	0.518463709770 	0.534619918413 
0.074060371887 	0.592565188218 	0.599808735267 
0.037009632750 	0.629574821055 	0.595758559815 
0.185171483085 	0.370342966170 	0.519069021208 
0.148120743687 	0.407352598485 	0.525222369146 
0.185171482911 	0.481454076933 	0.580191806743 
0.148120743774 	0.518463709770 	0.591777122031 
0.185171482998 	0.592565188218 	0.646754711362 
0.148120743861 	0.629574821055 	0.652915763413 
0.296282594196 	0.370342966170 	0.523052240870 
0.259231854798 	0.407352598485 	0.544852148900 
0.296282594022 	0.481454076933 	0.584175026480 
0.259231854885 	0.518463709770 	0.611406901750 
0.296282594109 	0.592565188218 	0.650737931061 
0.259231854972 	0.629574821055 	0.672545543095 
0.074060371974 	0.703676299503 	0.640666235788 
0.037009632576 	0.740685931818 	0.622873639682 
0.074060371800 	0.814787410267 	0.636700653559 
0.037009632663 	0.851797043103 	0.603277711268 
0.074060371887 	0.925898521552 	0.589767528794 
0.037009632750 	0.962908154388 	0.546139926930 
0.185171483085 	0.703676299503 	0.687612211855 
0.148120743687 	0.740685931818 	0.680030843321 
0.185171482911 	0.814787410267 	0.683646629681 
0.148120743774 	0.851797043103 	0.660434914886 
0.185171482998 	0.925898521552 	0.636713504889 
0.148120743861 	0.962908154388 	0.603297130528 
0.296282594196 	0.703676299503 	0.691595431518 
0.259231854798 	0.740685931818 	0.699660623075 
0.296282594022 	0.814787410267 	0.687629849417 
0.259231854885 	0.851797043103 	0.680064694604 
0.296282594109 	0.925898521552 	0.640696724588 
0.259231854972 	0.962908154388 	0.622926910210 
0.407393705307 	0.037009632836 	0.531913258261 
0.370342965909 	0.074019265152 	0.527900038369 
0.407393705133 	0.148120743600 	0.474756054905 
0.370342965996 	0.185130376437 	0.480941213946 
0.407393705220 	0.259231854885 	0.455126275076 
0.370342966083 	0.296241487721 	0.476940356951 
0.518504816418 	0.037009632836 	0.465354427407 
0.481454077020 	0.074019265152 	0.466777252624 
0.518504816245 	0.148120743600 	0.408197224069 
0.481454077107 	0.185130376437 	0.419818428185 
0.518504816331 	0.259231854885 	0.388567444231 
0.481454077194 	0.296241487721 	0.415817571172 
0.629615927529 	0.037009632836 	0.404223711867 
0.592565188131 	0.074019265152 	0.400214348127 
0.629615927356 	0.148120743600 	0.347066508495 
0.592565188218 	0.185130376437 	0.353255523696 
0.629615927442 	0.259231854885 	0.327436728674 
0.592565188305 	0.296241487721 	0.349254666692 
0.407393705307 	0.370342966170 	0.482208911378 
0.370342965909 	0.407352598485 	0.517769512662 
0.407393705133 	0.481454076933 	0.543331697048 
0.370342965996 	0.518463709770 	0.584324265477 
0.407393705220 	0.592565188218 	0.609894601599 
0.370342966083 	0.629574821055 	0.645462906789 
0.518504816418 	0.370342966170 	0.415650080524 
0.481454077020 	0.407352598485 	0.456646726917 
0.518504816245 	0.481454076933 	0.476772866211 
0.481454077107 	0.518463709770 	0.523201479715 
0.518504816331 	0.592565188218 	0.543335770754 
0.481454077194 	0.629574821055 	0.584340121010 
0.629615927529 	0.370342966170 	0.354519364984 
0.592565188131 	0.407352598485 	0.390083822420 
0.629615927356 	0.481454076933 	0.415642150638 
0.592565188218 	0.518463709770 	0.456638575227 
0.629615927442 	0.592565188218 	0.482205055197 
0.592565188305 	0.629574821055 	0.517777216530 
0.407393705307 	0.703676299503 	0.650752102026 
0.370342965909 	0.740685931818 	0.672577986836 
0.407393705133 	0.814787410267 	0.646786519985 
0.370342965996 	0.851797043103 	0.652982058331 
0.407393705220 	0.925898521552 	0.599853395126 
0.370342966083 	0.962908154388 	0.595844273903 
0.518504816418 	0.703676299503 	0.584193271172 
0.481454077020 	0.740685931818 	0.611455201091 
0.518504816245 	0.814787410267 	0.580227689149 
0.481454077107 	0.851797043103 	0.591859272570 
0.518504816331 	0.925898521552 	0.533294564281 
0.481454077194 	0.962908154388 	0.534721488125 
0.629615927529 	0.703676299503 	0.523062555632 
0.592565188131 	0.740685931818 	0.544892296594 
0.629615927356 	0.814787410267 	0.519096973575 
0.592565188218 	0.851797043103 	0.525296368081 
0.629615927442 	0.925898521552 	0.472163848724 
0.592565188305 	0.962908154388 	0.468158583645 
0.740727038640 	0.037009632836 	0.377124852834 
0.703676299243 	0.074019265152 	0.359356847656 
0.740727038467 	0.148120743600 	0.319967649394 
0.703676299329 	0.185130376437 	0.312398023255 
0.740727038554 	0.259231854885 	0.300337869607 
0.703676299416 	0.296241487721 	0.308397166281 
0.851838149752 	0.037009632836 	0.396737707620 
0.814787410354 	0.074019265152 	0.363322429763 
0.851838149578 	0.148120743600 	0.339580504108 
0.814787410440 	0.185130376437 	0.316363605399 
0.851838149665 	0.259231854885 	0.319950724357 
0.814787410527 	0.296241487721 	0.312362748462 
0.962949260863 	0.037009632836 	0.453885203498 
0.925898521465 	0.074019265152 	0.410255554506 
0.962949260689 	0.148120743600 	0.396727999945 
0.925898521552 	0.185130376437 	0.363296730169 
0.962949260776 	0.259231854885 	0.377098220215 
0.925898521638 	0.296241487721 	0.359295873259 
0.740727038640 	0.370342966170 	0.327420505951 
0.703676299243 	0.407352598485 	0.349226321949 
0.740727038467 	0.481454076933 	0.388543291536 
0.703676299329 	0.518463709770 	0.415781074786 
0.740727038554 	0.592565188218 	0.455106196130 
0.703676299416 	0.629574821055 	0.476919716119 
0.851838149752 	0.370342966170 	0.347033360737 
0.814787410354 	0.407352598485 	0.353191904055 
0.851838149578 	0.481454076933 	0.408156146251 
0.814787410440 	0.518463709770 	0.419746656929 
0.851838149665 	0.592565188218 	0.474719050880 
0.814787410527 	0.629574821055 	0.480885298300 
0.962949260863 	0.370342966170 	0.404180856615 
0.925898521465 	0.407352598485 	0.400125028798 
0.962949260689 	0.481454076933 	0.465303642087 
0.925898521552 	0.518463709770 	0.466679781700 
0.962949260776 	0.592565188218 	0.531866546737 
0.925898521638 	0.629574821055 	0.527818423097 
0.740727038640 	0.703676299503 	0.495963696599 
0.703676299243 	0.740685931818 	0.504034796123 
0.740727038467 	0.814787410267 	0.491998114474 
0.703676299329 	0.851797043103 	0.484438867640 
0.740727038554 	0.925898521552 	0.445064989657 
0.703676299416 	0.962908154388 	0.427301083234 
0.851838149752 	0.703676299503 	0.515576551385 
0.814787410354 	0.740685931818 	0.508000378230 
0.851838149578 	0.814787410267 	0.511610969188 
0.814787410440 	0.851797043103 	0.488404449784 
0.851838149665 	0.925898521552 	0.464677844407 
0.814787410527 	0.962908154388 	0.431266665415 
0.962949260863 	0.703676299503 	0.572724047263 
0.925898521465 	0.740685931818 	0.554933502973 
0.962949260689 	0.814787410267 	0.568758465025 
0.925898521552 	0.851797043103 	0.535337574554 
0.962949260776 	0.925898521552 	0.521825340265 
0.925898521638 	0.962908154388 	0.478199790212 
