Anatase_001                             
   1.00000000000000     
     7.5684299469000003    0.0000000000000000    0.0000000000000000
     0.0000000000000000    7.5684299469000003    0.0000000000000000
     0.0000000000000000    0.0000000000000000   19.5146007537999999
   O    Ti
    32    16
Direct
 -0.0000000000000000  0.2500000000000000  0.0707579469727467
  0.5000000000000000  0.2500000000000000  0.0707579469727467
 -0.0000000000000000  0.7500000000000000  0.0707579469727467
  0.5000000000000000  0.7500000000000000  0.0707579469727467
  0.2500000000000000 -0.0000000000000000  0.1184775739413174
  0.7500000000000000 -0.0000000000000000  0.1184775739413174
  0.2500000000000000  0.5000000000000000  0.1184775739413174
  0.7500000000000000  0.5000000000000000  0.1184775739413174
 -0.0000000000000000 -0.0000000000000000  0.1977790132399586
  0.5000000000000000 -0.0000000000000000  0.1977790132399586
 -0.0000000000000000  0.5000000000000000  0.1977790132399586
  0.5000000000000000  0.5000000000000000  0.1977790132399586
  0.2500000000000000  0.2500000000000000  0.2444140033014132
  0.7500000000000000  0.2500000000000000  0.2444140033014132
  0.2500000000000000  0.7500000000000000  0.2444140033014132
  0.7500000000000000  0.7500000000000000  0.2444140033014132
  0.2500000000000000 -0.0000000000000000  0.3242019826985916
  0.7500000000000000  0.0000000000000000  0.3242019826985916
  0.2500000000000000  0.5000000000000000  0.3242019826985916
  0.7500000000000000  0.5000000000000000  0.3242019826985916
  0.0000000000000000  0.2500000000000000  0.3708369727600390
  0.5000000000000000  0.2500000000000000  0.3708369727600390
  0.0000000000000000  0.7500000000000000  0.3708369727600390
  0.5000000000000000  0.7500000000000000  0.3708369727600390
  0.2500000000000000  0.2500000000000000  0.4501384240586812
  0.7500000000000000  0.2500000000000000  0.4501384240586812
  0.2500000000000000  0.7500000000000000  0.4501384240586812
  0.7500000000000000  0.7500000000000000  0.4501384240586812
  0.0000000000000000 -0.0000000000000000  0.4978586620272562
  0.5000000000000000 -0.0000000000000000  0.4978586620272562
  0.0000000000000000  0.5000000000000000  0.4978586620272562
  0.5000000000000000  0.5000000000000000  0.4978586620272562
 -0.0000000000000000  0.0000000000000000  0.0974026190736021
  0.5000000000000000  0.0000000000000000  0.0974026190736021
  0.0000000000000000  0.5000000000000000  0.0974026190736021
  0.5000000000000000  0.5000000000000000  0.0974026190736021
  0.2500000000000000 -0.0000000000000000  0.2207194157485101
  0.7500000000000000  0.0000000000000000  0.2207194157485101
  0.2500000000000000  0.5000000000000000  0.2207194157485101
  0.7500000000000000  0.5000000000000000  0.2207194157485101
  0.2500000000000000  0.2500000000000000  0.3478975722514921
  0.7500000000000000  0.2500000000000000  0.3478975722514921
  0.2500000000000000  0.7500000000000000  0.3478975722514921
  0.7500000000000000  0.7500000000000000  0.3478975722514921
  0.0000000000000000  0.2500000000000000  0.4712133919263940
  0.5000000000000000  0.2500000000000000  0.4712133919263940
 -0.0000000000000000  0.7500000000000000  0.4712133919263940
  0.5000000000000000  0.7500000000000000  0.4712133919263940
 
  0.00000000E+00  0.00000000E+00  0.00000000E+00
  0.00000000E+00  0.00000000E+00  0.00000000E+00
  0.00000000E+00  0.00000000E+00  0.00000000E+00
  0.00000000E+00  0.00000000E+00  0.00000000E+00
  0.00000000E+00  0.00000000E+00  0.00000000E+00
  0.00000000E+00  0.00000000E+00  0.00000000E+00
  0.00000000E+00  0.00000000E+00  0.00000000E+00
  0.00000000E+00  0.00000000E+00  0.00000000E+00
  0.00000000E+00  0.00000000E+00  0.00000000E+00
  0.00000000E+00  0.00000000E+00  0.00000000E+00
  0.00000000E+00  0.00000000E+00  0.00000000E+00
  0.00000000E+00  0.00000000E+00  0.00000000E+00
  0.00000000E+00  0.00000000E+00  0.00000000E+00
  0.00000000E+00  0.00000000E+00  0.00000000E+00
  0.00000000E+00  0.00000000E+00  0.00000000E+00
  0.00000000E+00  0.00000000E+00  0.00000000E+00
  0.00000000E+00  0.00000000E+00  0.00000000E+00
  0.00000000E+00  0.00000000E+00  0.00000000E+00
  0.00000000E+00  0.00000000E+00  0.00000000E+00
  0.00000000E+00  0.00000000E+00  0.00000000E+00
  0.00000000E+00  0.00000000E+00  0.00000000E+00
  0.00000000E+00  0.00000000E+00  0.00000000E+00
  0.00000000E+00  0.00000000E+00  0.00000000E+00
  0.00000000E+00  0.00000000E+00  0.00000000E+00
  0.00000000E+00  0.00000000E+00  0.00000000E+00
  0.00000000E+00  0.00000000E+00  0.00000000E+00
  0.00000000E+00  0.00000000E+00  0.00000000E+00
  0.00000000E+00  0.00000000E+00  0.00000000E+00
  0.00000000E+00  0.00000000E+00  0.00000000E+00
  0.00000000E+00  0.00000000E+00  0.00000000E+00
  0.00000000E+00  0.00000000E+00  0.00000000E+00
  0.00000000E+00  0.00000000E+00  0.00000000E+00
  0.00000000E+00  0.00000000E+00  0.00000000E+00
  0.00000000E+00  0.00000000E+00  0.00000000E+00
  0.00000000E+00  0.00000000E+00  0.00000000E+00
  0.00000000E+00  0.00000000E+00  0.00000000E+00
  0.00000000E+00  0.00000000E+00  0.00000000E+00
  0.00000000E+00  0.00000000E+00  0.00000000E+00
  0.00000000E+00  0.00000000E+00  0.00000000E+00
  0.00000000E+00  0.00000000E+00  0.00000000E+00
  0.00000000E+00  0.00000000E+00  0.00000000E+00
  0.00000000E+00  0.00000000E+00  0.00000000E+00
  0.00000000E+00  0.00000000E+00  0.00000000E+00
  0.00000000E+00  0.00000000E+00  0.00000000E+00
  0.00000000E+00  0.00000000E+00  0.00000000E+00
  0.00000000E+00  0.00000000E+00  0.00000000E+00
  0.00000000E+00  0.00000000E+00  0.00000000E+00
  0.00000000E+00  0.00000000E+00  0.00000000E+00
