POSCAR Generated by VLAtoms at MaterialsSquare.com
1.0
23.69184 0.00000 0.00000
0.00000 28.60582 0.00000
-3.84048 0.00000 27.81942
Fe Cu Re Mo S 
8 32 112 48 320 
Direct
0.29998 -0.00000 0.80021 
0.04998 0.11891 0.80021 
0.29998 0.23782 0.80021 
0.04998 0.35672 0.80021 
0.79998 -0.00000 0.80021 
0.54998 0.11891 0.80021 
0.79998 0.23782 0.80021 
0.54998 0.35672 0.80021 
0.25023 0.11891 0.00015 
0.45016 0.11891 0.20001 
0.40013 -0.00000 0.39995 
0.35018 0.11891 0.60006 
0.00023 -0.00000 0.00015 
0.20016 -0.00000 0.20001 
0.15013 0.11891 0.39995 
0.10018 -0.00000 0.60006 
0.25023 0.35672 0.00015 
0.45016 0.35672 0.20001 
0.40013 0.23782 0.39995 
0.35018 0.35672 0.60006 
0.00023 0.23782 0.00015 
0.20016 0.23782 0.20001 
0.15013 0.35672 0.39995 
0.10018 0.23782 0.60006 
0.75023 0.11891 0.00015 
0.95016 0.11891 0.20001 
0.90013 -0.00000 0.39995 
0.85018 0.11891 0.60006 
0.50023 -0.00000 0.00015 
0.70016 -0.00000 0.20001 
0.65013 0.11891 0.39995 
0.60018 -0.00000 0.60006 
0.75023 0.35672 0.00015 
0.95016 0.35672 0.20001 
0.90013 0.23782 0.39995 
0.85018 0.35672 0.60006 
0.50023 0.23782 0.00015 
0.70016 0.23782 0.20001 
0.65013 0.35672 0.39995 
0.60018 0.23782 0.60006 
0.31855 0.04952 0.12083 
0.33937 -0.00000 0.03753 
0.31855 0.18829 0.12083 
0.26851 0.16844 0.32070 
0.28935 0.11891 0.23747 
0.26851 0.06938 0.32070 
0.46854 0.16842 0.52071 
0.46854 0.06940 0.52071 
0.48935 0.11891 0.43744 
0.41862 0.04929 0.72037 
0.41862 0.18852 0.72037 
0.43933 -0.00000 0.63733 
0.36866 0.16839 0.92127 
0.36866 0.06943 0.92127 
0.06855 0.16843 0.12083 
0.08937 0.11891 0.03753 
0.06855 0.06939 0.12083 
0.01851 0.04953 0.32070 
0.03935 -0.00000 0.23747 
0.01851 0.18829 0.32070 
0.21854 0.04951 0.52071 
0.21854 0.18831 0.52071 
0.23935 -0.00000 0.43744 
0.16862 0.16820 0.72037 
0.16862 0.06962 0.72037 
0.18933 0.11891 0.63733 
0.11866 0.04948 0.92127 
0.11866 0.18833 0.92127 
0.31855 0.28734 0.12083 
0.33937 0.23782 0.03753 
0.31855 0.42611 0.12083 
0.26851 0.40625 0.32070 
0.28935 0.35672 0.23747 
0.26851 0.30719 0.32070 
0.46854 0.40623 0.52071 
0.46854 0.30721 0.52071 
0.48935 0.35672 0.43744 
0.41862 0.28711 0.72037 
0.41862 0.42634 0.72037 
0.43933 0.23782 0.63733 
0.36866 0.40621 0.92127 
0.36866 0.30724 0.92127 
0.06855 0.40625 0.12083 
0.08937 0.35672 0.03753 
0.06855 0.30720 0.12083 
0.01851 0.28735 0.32070 
0.03935 0.23782 0.23747 
0.01851 0.42610 0.32070 
0.21854 0.28733 0.52071 
0.21854 0.42612 0.52071 
0.23935 0.23782 0.43744 
0.16862 0.40601 0.72037 
0.16862 0.30743 0.72037 
0.18933 0.35672 0.63733 
0.11866 0.28730 0.92127 
0.11866 0.42615 0.92127 
0.81855 0.04952 0.12083 
0.83937 -0.00000 0.03753 
0.81855 0.18829 0.12083 
0.76851 0.16844 0.32070 
0.78935 0.11891 0.23747 
0.76851 0.06938 0.32070 
0.96854 0.16842 0.52071 
0.96854 0.06940 0.52071 
0.98935 0.11891 0.43744 
0.91862 0.04929 0.72037 
0.91862 0.18852 0.72037 
0.93933 -0.00000 0.63733 
0.86866 0.16839 0.92127 
0.86866 0.06943 0.92127 
0.56855 0.16843 0.12083 
0.58937 0.11891 0.03753 
0.56855 0.06939 0.12083 
0.51851 0.04953 0.32070 
0.53935 -0.00000 0.23747 
0.51851 0.18829 0.32070 
0.71854 0.04951 0.52071 
0.71854 0.18831 0.52071 
0.73935 -0.00000 0.43744 
0.66862 0.16820 0.72037 
0.66862 0.06962 0.72037 
0.68933 0.11891 0.63733 
0.61866 0.04948 0.92127 
0.61866 0.18833 0.92127 
0.81855 0.28734 0.12083 
0.83937 0.23782 0.03753 
0.81855 0.42611 0.12083 
0.76851 0.40625 0.32070 
0.78935 0.35672 0.23747 
0.76851 0.30719 0.32070 
0.96854 0.40623 0.52071 
0.96854 0.30721 0.52071 
0.98935 0.35672 0.43744 
0.91862 0.28711 0.72037 
0.91862 0.42634 0.72037 
0.93933 0.23782 0.63733 
0.86866 0.40621 0.92127 
0.86866 0.30724 0.92127 
0.56855 0.40625 0.12083 
0.58937 0.35672 0.03753 
0.56855 0.30720 0.12083 
0.51851 0.28735 0.32070 
0.53935 0.23782 0.23747 
0.51851 0.42610 0.32070 
0.71854 0.28733 0.52071 
0.71854 0.42612 0.52071 
0.73935 0.23782 0.43744 
0.66862 0.40601 0.72037 
0.66862 0.30743 0.72037 
0.68933 0.35672 0.63733 
0.61866 0.28730 0.92127 
0.61866 0.42615 0.92127 
0.42226 -0.00000 0.12070 
0.37223 0.11891 0.32055 
0.32220 -0.00000 0.52058 
0.27191 0.11891 0.72033 
0.38963 0.11891 0.83859 
0.47223 0.11891 0.92109 
0.17226 0.11891 0.12070 
0.12223 -0.00000 0.32055 
0.07220 0.11891 0.52058 
0.02191 -0.00000 0.72033 
0.13963 -0.00000 0.83859 
0.22223 -0.00000 0.92109 
0.42226 0.23782 0.12070 
0.37223 0.35672 0.32055 
0.32220 0.23782 0.52058 
0.27191 0.35672 0.72033 
0.38963 0.35672 0.83859 
0.47223 0.35672 0.92109 
0.17226 0.35672 0.12070 
0.12223 0.23782 0.32055 
0.07220 0.35672 0.52058 
0.02191 0.23782 0.72033 
0.13963 0.23782 0.83859 
0.22223 0.23782 0.92109 
0.92226 -0.00000 0.12070 
0.87223 0.11891 0.32055 
0.82220 -0.00000 0.52058 
0.77191 0.11891 0.72033 
0.88963 0.11891 0.83859 
0.97223 0.11891 0.92109 
0.67226 0.11891 0.12070 
0.62223 -0.00000 0.32055 
0.57220 0.11891 0.52058 
0.52191 -0.00000 0.72033 
0.63963 -0.00000 0.83859 
0.72223 -0.00000 0.92109 
0.92226 0.23782 0.12070 
0.87223 0.35672 0.32055 
0.82220 0.23782 0.52058 
0.77191 0.35672 0.72033 
0.88963 0.35672 0.83859 
0.97223 0.35672 0.92109 
0.67226 0.35672 0.12070 
0.62223 0.23782 0.32055 
0.57220 0.35672 0.52058 
0.52191 0.23782 0.72033 
0.63963 0.23782 0.83859 
0.72223 0.23782 0.92109 
0.25570 -0.00000 0.07308 
0.36280 -0.00000 0.18109 
0.38990 0.06445 0.07271 
0.45572 -0.00000 0.27303 
0.49162 0.05484 0.17348 
0.38990 0.17336 0.07271 
0.26468 0.11891 0.08122 
0.31277 0.11891 0.38091 
0.49162 0.18298 0.17348 
0.33988 0.18335 0.27265 
0.35500 0.11891 0.17294 
0.40576 0.11891 0.47301 
0.44162 0.17371 0.37335 
0.33988 0.05446 0.27265 
0.46466 0.11891 0.28109 
0.26276 -0.00000 0.58091 
0.28984 0.06441 0.47264 
0.44162 0.06411 0.37335 
0.30492 -0.00000 0.37279 
0.35569 -0.00000 0.67282 
0.39161 0.05483 0.57337 
0.28984 0.17341 0.47264 
0.41466 -0.00000 0.48109 
0.46266 -0.00000 0.78092 
0.48983 0.06440 0.67245 
0.39161 0.18298 0.57337 
0.25498 0.11891 0.57281 
0.30542 0.11891 0.87399 
0.34127 0.17422 0.77236 
0.48983 0.17342 0.67245 
0.36470 0.11891 0.68155 
0.41275 0.11891 0.98130 
0.44024 0.18361 0.87349 
0.34127 0.06359 0.77236 
0.45509 0.11891 0.77154 
0.29165 0.05477 0.97341 
0.44024 0.05420 0.87349 
0.31515 -0.00000 0.88149 
0.29165 0.18305 0.97341 
0.40490 -0.00000 0.97286 
0.00570 0.11891 0.07308 
0.11280 0.11891 0.18109 
0.13990 0.18336 0.07271 
0.20572 0.11891 0.27303 
0.24162 0.17374 0.17348 
0.13990 0.05445 0.07271 
0.01468 -0.00000 0.08122 
0.06277 -0.00000 0.38091 
0.24162 0.06407 0.17348 
0.08988 0.06445 0.27265 
0.10500 -0.00000 0.17294 
0.15576 -0.00000 0.47301 
0.19162 0.05480 0.37335 
0.08988 0.17337 0.27265 
0.21466 -0.00000 0.28109 
0.01276 0.11891 0.58091 
0.03984 0.18332 0.47264 
0.19162 0.18301 0.37335 
0.05492 0.11891 0.37279 
0.10569 0.11891 0.67282 
0.14161 0.17374 0.57337 
0.03984 0.05450 0.47264 
0.16466 0.11891 0.48109 
0.21266 0.11891 0.78092 
0.23983 0.18330 0.67245 
0.14161 0.06407 0.57337 
0.00498 -0.00000 0.57281 
0.05542 -0.00000 0.87399 
0.09127 0.05532 0.77236 
0.23983 0.05451 0.67245 
0.11470 -0.00000 0.68155 
0.16275 -0.00000 0.98130 
0.19024 0.06471 0.87349 
0.09127 0.18250 0.77236 
0.20509 -0.00000 0.77154 
0.04165 0.17368 0.97341 
0.19024 0.17311 0.87349 
0.06515 0.11891 0.88149 
0.04165 0.06414 0.97341 
0.15490 0.11891 0.97286 
0.25570 0.23782 0.07308 
0.36280 0.23782 0.18109 
0.38990 0.30227 0.07271 
0.45572 0.23782 0.27303 
0.49162 0.29265 0.17348 
0.38990 0.41118 0.07271 
0.26468 0.35672 0.08122 
0.31277 0.35672 0.38091 
0.49162 0.42079 0.17348 
0.33988 0.42117 0.27265 
0.35500 0.35672 0.17294 
0.40576 0.35672 0.47301 
0.44162 0.41152 0.37335 
0.33988 0.29228 0.27265 
0.46466 0.35672 0.28109 
0.26276 0.23782 0.58091 
0.28984 0.30222 0.47264 
0.44162 0.30192 0.37335 
0.30492 0.23782 0.37279 
0.35569 0.23782 0.67282 
0.39161 0.29265 0.57337 
0.28984 0.41122 0.47264 
0.41466 0.23782 0.48109 
0.46266 0.23782 0.78092 
0.48983 0.30221 0.67245 
0.39161 0.42080 0.57337 
0.25498 0.35672 0.57281 
0.30542 0.35672 0.87399 
0.34127 0.41204 0.77236 
0.48983 0.41124 0.67245 
0.36470 0.35672 0.68155 
0.41275 0.35672 0.98130 
0.44024 0.42143 0.87349 
0.34127 0.30141 0.77236 
0.45509 0.35672 0.77154 
0.29165 0.29258 0.97341 
0.44024 0.29202 0.87349 
0.31515 0.23782 0.88149 
0.29165 0.42086 0.97341 
0.40490 0.23782 0.97286 
0.00570 0.35672 0.07308 
0.11280 0.35672 0.18109 
0.13990 0.42118 0.07271 
0.20572 0.35672 0.27303 
0.24162 0.41156 0.17348 
0.13990 0.29227 0.07271 
0.01468 0.23782 0.08122 
0.06277 0.23782 0.38091 
0.24162 0.30189 0.17348 
0.08988 0.30226 0.27265 
0.10500 0.23782 0.17294 
0.15576 0.23782 0.47301 
0.19162 0.29262 0.37335 
0.08988 0.41119 0.27265 
0.21466 0.23782 0.28109 
0.01276 0.35672 0.58091 
0.03984 0.42113 0.47264 
0.19162 0.42083 0.37335 
0.05492 0.35672 0.37279 
0.10569 0.35672 0.67282 
0.14161 0.41156 0.57337 
0.03984 0.29232 0.47264 
0.16466 0.35672 0.48109 
0.21266 0.35672 0.78092 
0.23983 0.42112 0.67245 
0.14161 0.30189 0.57337 
0.00498 0.23782 0.57281 
0.05542 0.23782 0.87399 
0.09127 0.29313 0.77236 
0.23983 0.29233 0.67245 
0.11470 0.23782 0.68155 
0.16275 0.23782 0.98130 
0.19024 0.30252 0.87349 
0.09127 0.42032 0.77236 
0.20509 0.23782 0.77154 
0.04165 0.41149 0.97341 
0.19024 0.41093 0.87349 
0.06515 0.35672 0.88149 
0.04165 0.30196 0.97341 
0.15490 0.35672 0.97286 
0.75570 -0.00000 0.07308 
0.86280 -0.00000 0.18109 
0.88990 0.06445 0.07271 
0.95572 -0.00000 0.27303 
0.99162 0.05484 0.17348 
0.88990 0.17336 0.07271 
0.76468 0.11891 0.08122 
0.81277 0.11891 0.38091 
0.99162 0.18298 0.17348 
0.83988 0.18335 0.27265 
0.85500 0.11891 0.17294 
0.90576 0.11891 0.47301 
0.94162 0.17371 0.37335 
0.83988 0.05446 0.27265 
0.96466 0.11891 0.28109 
0.76276 -0.00000 0.58091 
0.78984 0.06441 0.47264 
0.94162 0.06411 0.37335 
0.80492 -0.00000 0.37279 
0.85569 -0.00000 0.67282 
0.89161 0.05483 0.57337 
0.78984 0.17341 0.47264 
0.91466 -0.00000 0.48109 
0.96266 -0.00000 0.78092 
0.98983 0.06440 0.67245 
0.89161 0.18298 0.57337 
0.75498 0.11891 0.57281 
0.80542 0.11891 0.87399 
0.84127 0.17422 0.77236 
0.98983 0.17342 0.67245 
0.86470 0.11891 0.68155 
0.91275 0.11891 0.98130 
0.94024 0.18361 0.87349 
0.84127 0.06359 0.77236 
0.95509 0.11891 0.77154 
0.79165 0.05477 0.97341 
0.94024 0.05420 0.87349 
0.81515 -0.00000 0.88149 
0.79165 0.18305 0.97341 
0.90490 -0.00000 0.97286 
0.50570 0.11891 0.07308 
0.61280 0.11891 0.18109 
0.63990 0.18336 0.07271 
0.70572 0.11891 0.27303 
0.74162 0.17374 0.17348 
0.63990 0.05445 0.07271 
0.51468 -0.00000 0.08122 
0.56277 -0.00000 0.38091 
0.74162 0.06407 0.17348 
0.58988 0.06445 0.27265 
0.60500 -0.00000 0.17294 
0.65576 -0.00000 0.47301 
0.69162 0.05480 0.37335 
0.58988 0.17337 0.27265 
0.71466 -0.00000 0.28109 
0.51276 0.11891 0.58091 
0.53984 0.18332 0.47264 
0.69162 0.18301 0.37335 
0.55492 0.11891 0.37279 
0.60569 0.11891 0.67282 
0.64161 0.17374 0.57337 
0.53984 0.05450 0.47264 
0.66466 0.11891 0.48109 
0.71266 0.11891 0.78092 
0.73983 0.18330 0.67245 
0.64161 0.06407 0.57337 
0.50498 -0.00000 0.57281 
0.55542 -0.00000 0.87399 
0.59127 0.05532 0.77236 
0.73983 0.05451 0.67245 
0.61470 -0.00000 0.68155 
0.66275 -0.00000 0.98130 
0.69024 0.06471 0.87349 
0.59127 0.18250 0.77236 
0.70509 -0.00000 0.77154 
0.54165 0.17368 0.97341 
0.69024 0.17311 0.87349 
0.56515 0.11891 0.88149 
0.54165 0.06414 0.97341 
0.65490 0.11891 0.97286 
0.75570 0.23782 0.07308 
0.86280 0.23782 0.18109 
0.88990 0.30227 0.07271 
0.95572 0.23782 0.27303 
0.99162 0.29265 0.17348 
0.88990 0.41118 0.07271 
0.76468 0.35672 0.08122 
0.81277 0.35672 0.38091 
0.99162 0.42079 0.17348 
0.83988 0.42117 0.27265 
0.85500 0.35672 0.17294 
0.90576 0.35672 0.47301 
0.94162 0.41152 0.37335 
0.83988 0.29228 0.27265 
0.96466 0.35672 0.28109 
0.76276 0.23782 0.58091 
0.78984 0.30222 0.47264 
0.94162 0.30192 0.37335 
0.80492 0.23782 0.37279 
0.85569 0.23782 0.67282 
0.89161 0.29265 0.57337 
0.78984 0.41122 0.47264 
0.91466 0.23782 0.48109 
0.96266 0.23782 0.78092 
0.98983 0.30221 0.67245 
0.89161 0.42080 0.57337 
0.75498 0.35672 0.57281 
0.80542 0.35672 0.87399 
0.84127 0.41204 0.77236 
0.98983 0.41124 0.67245 
0.86470 0.35672 0.68155 
0.91275 0.35672 0.98130 
0.94024 0.42143 0.87349 
0.84127 0.30141 0.77236 
0.95509 0.35672 0.77154 
0.79165 0.29258 0.97341 
0.94024 0.29202 0.87349 
0.81515 0.23782 0.88149 
0.79165 0.42086 0.97341 
0.90490 0.23782 0.97286 
0.50570 0.35672 0.07308 
0.61280 0.35672 0.18109 
0.63990 0.42118 0.07271 
0.70572 0.35672 0.27303 
0.74162 0.41156 0.17348 
0.63990 0.29227 0.07271 
0.51468 0.23782 0.08122 
0.56277 0.23782 0.38091 
0.74162 0.30189 0.17348 
0.58988 0.30226 0.27265 
0.60500 0.23782 0.17294 
0.65576 0.23782 0.47301 
0.69162 0.29262 0.37335 
0.58988 0.41119 0.27265 
0.71466 0.23782 0.28109 
0.51276 0.35672 0.58091 
0.53984 0.42113 0.47264 
0.69162 0.42083 0.37335 
0.55492 0.35672 0.37279 
0.60569 0.35672 0.67282 
0.64161 0.41156 0.57337 
0.53984 0.29232 0.47264 
0.66466 0.35672 0.48109 
0.71266 0.35672 0.78092 
0.73983 0.42112 0.67245 
0.64161 0.30189 0.57337 
0.50498 0.23782 0.57281 
0.55542 0.23782 0.87399 
0.59127 0.29313 0.77236 
0.73983 0.29233 0.67245 
0.61470 0.23782 0.68155 
0.66275 0.23782 0.98130 
0.69024 0.30252 0.87349 
0.59127 0.42032 0.77236 
0.70509 0.23782 0.77154 
0.54165 0.41149 0.97341 
0.69024 0.41093 0.87349 
0.56515 0.35672 0.88149 
0.54165 0.30196 0.97341 
0.65490 0.35672 0.97286