Si  O 
 1.0000000000000000
    40.2719999999999985    0.0000000000000000    0.0000000000000000
     0.0000000000000000   38.7096000000000018    0.0000000000000000
     0.0000000000000000    0.0000000000000000   50.0000000000000000
Si O
 1200 921
Cartesian
  1.6525776288000000  1.8086015440800001 16.9081499999999991
  2.7287783664000003  3.1299382562400000 14.4654499999999988
  1.1021036879999999  4.4538104472000004 18.2530500000000018
  4.3140977280000001  1.5945529399200000 18.4603000000000002
  5.0904613439999995  5.3955375960000005 18.4088999999999992
  2.7564492575999999  5.7171369527999998 15.9999000000000002
  5.1662532480000003  3.7308428608800002 16.0367999999999995
 11.4200115839999992  0.5878362436800000 17.6362500000000004
 10.2798709920000011  1.6330573790400000 15.0480499999999981
  8.0377273920000007  2.9105903078400002 16.7117499999999986
  7.3330882079999995  4.4625201072000005 18.8313000000000024
  9.0231832319999992  6.0467104872000004 18.8588000000000022
 11.8512038880000006  5.9017817448000001 15.4856500000000015
 12.2191691520000010  5.5859501183999996 18.5306999999999995
  9.7670876159999995  1.0352069618399999 19.3769999999999989
 12.8692397760000006  3.1952219966400004 14.6387499999999999
  7.1445749760000004  0.4511836137600000 18.3039500000000004
 17.5200919679999991 17.3201072951999997 18.8255499999999998
 15.2830629120000001 14.0503848024000000 16.2575500000000019
 19.6815707519999989  3.1555407856800004 18.1603999999999992
 13.9554561599999989  1.9573083434400003 17.2262500000000003
 15.5938016639999990  3.7189783684800002 13.4071500000000015
 14.7519557760000009  3.8826502992000003 18.5777000000000001
 17.0636893920000006  1.9023174856800000 18.9387499999999989
 16.2631625759999991  5.5642727424000009 15.7922499999999992
 16.8159360480000011  6.4014452616000002 18.7343000000000011
  1.2000411648000000  8.3300736624000002 15.4657499999999999
  1.3874146991999998  8.5550538576000008 18.5580500000000015
  2.3574423360000001 10.9836941616000008 14.8421000000000003
  4.6610812799999994  8.8469629512000001 18.5935500000000005
  4.5546826559999998 11.4580803096000015 16.8733500000000021
  1.3969108367999998 11.5972800312000004 18.6502000000000017
  7.0868651999999992  7.3214563248000006 16.8586000000000027
  6.9964545599999992  9.1636848983999997 19.0475999999999992
  8.0424392160000000 11.1869969808000000 18.8273000000000010
 10.9686430079999990 10.6570238472000014 18.6195500000000003
 10.5504988320000006 11.5879897272000001 15.7516999999999996
  7.2892319999999993 12.6841681800000003 16.3420500000000004
 13.1882342880000003 12.6331876368000007 14.6690500000000004
 -0.0366933495360000 17.9593576295999995 15.1975500000000014
 19.8679898399999999  9.8368448423999997 17.5328499999999998
 18.1802708639999970 11.5694865384000014 17.5616500000000002
 17.3584401600000007 11.0501972544000004 14.7004500000000018
 14.1538360319999992  7.9100745024000005 15.5820999999999987
 13.8877186559999988  8.1564998160000002 18.6426000000000016
 16.6520692799999992  9.4733616983999998 18.8965999999999994
 14.5848269759999987 10.1626635456000010 13.5964000000000009
 14.1138056639999991 11.1621841271999998 18.9845000000000006
 15.8919352799999984 12.3598591512000002 17.7391500000000022
 19.4862918239999985  7.8538681631999996 18.8793499999999987
  3.5426835408000001 13.6014308616000008 18.7849000000000004
  2.0499454799999999 16.6199667600000005 17.0470499999999987
  4.1706891360000000 16.7458503792000002 19.1772500000000008
  5.0851857119999995 15.3816466560000009 16.8046000000000006
  1.2699171119999999 18.8904009288000019 18.8838000000000008
  5.4467477280000001 18.5420532384000012 16.3674999999999997
 15.0409073759999998 14.6148094799999999 19.1363500000000002
  0.2314488220800000 15.4427304048000007 19.0594499999999982
 12.0248970240000013 13.4756246616000013 19.1656499999999994
 12.0128556959999990 15.4702529303999992 14.4806999999999988
  7.6371418080000000 15.4811303280000008 18.2886500000000005
  9.2164485599999999 14.9007960048000001 15.7352999999999987
 11.6394537119999981 16.4475929112000010 18.9668499999999973
  9.0278547840000005 18.0105317207999995 19.0407499999999992
 12.7315900799999984 17.5177585128000004 16.4806500000000007
 18.0239349599999983 15.3279951503999996 16.7797000000000018
 18.2933949120000001 17.8774868256000019 15.2849500000000003
 14.5085920799999997 17.5260423672000023 18.7906999999999975
  1.7372374272000000  1.6507437952800001 24.5295999999999985
  1.8599301023999999  1.7931099621600000 26.7690500000000000
  1.0085155872000000  1.0289785872000001 29.6697500000000005
  2.9509952351999997  3.6516236644800002 23.9619000000000000
  0.6188839872000000  3.6801874783200001 27.6880000000000024
  0.8295186287999999  3.6657758942400003 21.1652500000000003
  3.0114153167999995  3.6957448665600006 21.7462999999999980
  3.9380176559999995  1.6719914947200001 27.7002000000000024
  4.1409684000000002  1.7905822252800001 21.4548999999999985
  4.0822920959999998  5.5519243800000000 28.0389499999999998
  1.7664144911999999  5.5360534440000002 24.5850499999999990
  1.5436297872000000  5.7060660072000005 26.8089000000000013
  4.2396347999999993  5.6376274343999997 21.2981000000000016
  5.0493839039999999  3.7077177458400001 27.1494999999999997
  5.1625884959999997  3.6356172448800002 24.8612000000000002
  6.2892379680000001  5.5620275856000010 24.2736499999999999
  6.4184708159999992  5.7982722744000004 21.9244500000000002
  6.3799707840000002  1.8874994508000000 21.8323999999999998
  6.4401371520000001  1.7389939413600002 24.1101000000000028
 18.6011535360000018 15.2288211552000003 24.8309499999999979
 18.6005494559999995 19.2133938312000012 24.7923000000000009
  8.6198591520000001  1.7566300351200002 25.0026000000000010
  8.6079789120000001  1.7555732630400001 27.3533499999999989
  9.6444191039999989  3.8261691218400000 21.9233000000000011
  9.6451439999999984  3.8211368738400004 24.2609999999999992
  7.4539444799999997  3.9015792936000002 21.1322499999999991
  7.2286629119999990  3.6847126305600000 27.9442000000000021
 10.6744157760000000  1.7998415616000001 21.3632999999999988
 10.8133541760000007  1.9769379816000001 28.0744500000000023
  8.4384740639999993  5.6089049111999998 27.3610499999999988
  8.4913109280000008  5.7198079152000005 25.0465499999999999
 10.8233416320000000  5.7493820496000003 21.3053500000000007
 10.6805371200000003  5.7607239624000002 27.9777500000000003
 11.8682389439999998  3.7468105708800001 24.8218500000000013
 11.8809246239999986  3.9000696191999999 27.1924500000000009
 13.0683848159999982  5.6775757416000001 24.1191999999999993
 13.0871918399999991  5.6930595816000009 21.7901500000000006
 13.0428120959999987  1.7671358205600001 24.0867000000000004
 12.9327487199999993  1.8861446148000001 21.8020500000000013
  3.3609480863999996  8.5340345448000008 29.9551999999999978
 19.8380274720000003  5.4073053144000003 21.6044000000000018
 19.8579218399999995  1.5842794120800001 21.6435999999999993
 18.5859709920000000  3.6725345904000002 26.8828999999999994
 17.6366794079999991  1.7598777705600002 28.0268499999999960
 15.2627658239999988  1.8188479752000002 25.0568000000000026
 15.2748474240000007  1.7990751115200001 27.4197499999999970
 16.3255439039999999  3.6032985998400000 21.7642999999999986
 16.3563519839999998  3.6349166011200005 24.0741499999999995
 14.1736095839999994  3.7240415841600001 20.9689999999999976
 14.1585075839999988  3.8346039436800003 27.9856499999999997
 17.4957274080000005  1.7281165437599999 21.1657499999999992
 15.2065058400000002  5.5975242888000007 24.8367499999999986
 17.5378921919999975  5.5403502096000006 21.4466000000000001
 17.5236761759999986  5.5642340328000008 27.5887500000000010
 15.2778678239999994  5.6903112000000000 27.0862499999999997
 18.6597090239999979  3.5212574736000004 24.6309499999999986
 19.7374682879999988  5.4270085007999995 23.8588999999999984
 19.5914822879999981  1.5924355248000002 23.9136999999999986
 17.4532404479999990 13.2421283544000001 27.9808500000000002
 19.7847878880000003 17.3213847120000004 22.0472999999999999
  0.5153527296000000 10.1715667536000005 29.8381000000000007
  0.7484067936000001  7.5505397376000003 21.2920000000000016
  0.5460883200000000  7.6561782359999997 27.5432500000000040
  3.1073512751999997  7.4887205064000000 24.1993999999999971
  3.0818711807999994  7.5114430415999998 20.9755500000000019
  1.7081449343999999  9.4636455888000004 26.8497500000000002
  1.7655566975999999  9.4220327688000012 24.5724499999999999
  3.8631117359999996  9.2812459536000009 27.7559000000000005
  4.2501457919999996  9.4848971592000009 21.4998500000000021
  0.6196853999999999 11.4672931943999998 27.1365499999999997
  2.9794917023999998 11.3403644159999999 24.1321499999999993
  3.0356147615999998 11.3969965607999999 21.7733500000000006
  0.7358298480000000 11.5717316952000004 20.9167999999999985
  5.1110806080000000 11.1525454367999988 27.1504000000000012
  5.1166381439999995 11.3938223736000008 24.8514499999999998
  5.2556570880000004  7.4982043583999998 25.0485000000000007
  5.2043102880000003  7.4404496352000002 27.3219500000000011
  6.3565324800000003  9.4511036784000009 24.3191500000000005
  6.4454127839999993  9.5275551384000003 22.1057500000000005
 16.6186837919999988 17.9122867560000003 29.8153500000000022
  6.9924273599999998 12.3170850431999988 29.8291499999999985
  7.6034744160000001  7.7069265215999998 21.0143999999999984
  7.4781076799999990  7.5397784688000007 28.1294000000000004
  9.8120714400000004  7.7962682784000004 21.7212500000000013
  9.6767977920000003  7.6465782551999997 24.1520499999999991
  8.6500228799999999  9.3817747848000010 27.2091000000000030
  8.6230003679999996  9.5737356911999996 24.8960999999999970
 10.9298610719999996  9.7407676152000011 27.7903999999999982
 10.7166208320000003  9.7291934447999999 21.0512499999999996
  7.3179459360000001 11.2183130472000006 27.7478000000000016
  9.8366373599999992 11.6153187048000017 24.3231000000000002
  9.8872592640000008 11.6801185751999999 22.0650000000000013
  7.5416166239999995 11.5798994208000021 21.7955499999999986
 11.7537859200000003  7.5715977600000004 27.0293500000000009
 11.9146322880000000  7.5467461968000000 24.6448499999999981
 12.1031857920000014 11.4337706808000004 24.9010999999999996
 12.1478877120000011 11.5738607231999993 27.1604999999999990
 12.7995692160000001  9.3614522448000006 22.0063500000000012
 13.2157400640000002  9.4840842576000011 24.2338999999999984
 19.7369044799999998 13.3089024144000003 21.5326999999999984
 15.2297830559999987 17.2009591464000025 27.1893500000000010
 18.8820104640000004 11.3805449807999999 24.7521500000000003
 18.6812948160000012  7.3970948832000012 24.5292500000000011
 18.5934615839999999  7.4418431808000003 26.8428999999999967
 18.4825524960000003 11.2848548496000003 27.0817499999999995
 17.4958482239999995  9.3214652279999992 27.7132500000000022
 17.3658099360000016  9.4292714640000010 21.0692999999999984
 16.2363816959999987  7.6059718848000006 21.6978499999999990
 14.0514243359999984  7.6797136728000011 21.0634999999999977
 14.0564180639999989  7.5784106496000003 27.6002000000000010
 16.4966193600000004  7.3388756448000008 24.0125499999999974
 15.2274875519999995  9.4066650575999997 26.9075999999999986
 15.5713701600000007  9.4141360104000000 24.5089000000000006
 16.3188587520000006 11.2444807367999999 21.8173999999999992
 14.0923809599999998 11.2834225944000011 21.2767499999999998
 14.3425103519999997 11.3464418232000011 27.9206500000000020
 16.7106650399999985 11.5535381832000006 24.0044000000000004
 19.5827835360000009  9.3927296016000010 21.6704000000000008
 19.7331994559999977  9.3751167336000005 23.9991000000000021
  4.1387937120000000 13.1362575984000003 27.9602000000000004
  1.8714841391999999 13.3184249759999993 27.2062499999999972
  4.2096321600000000 13.2595476744000003 20.9451999999999998
  6.3962003999999997 13.3282572144000007 24.1850000000000023
  1.8570023279999999 13.2499864031999994 24.9226499999999973
  6.3835147200000000 13.6648758959999999 21.7312000000000012
  3.1783306751999998 19.1401552680000009 24.5623000000000005
  1.1688021743999999 19.1607100656000000 21.2803000000000004
  0.8357003808000000 19.0100523023999983 27.7210500000000017
  3.2998071359999996 18.9082073448000010 22.3526999999999987
  1.9004074896000001 17.1933333552000001 25.1456000000000017
  4.3641960959999997 17.1320173488000016 28.1358500000000014
  2.0945829647999998 17.0385336648000028 27.5314000000000014
  0.7876478304000000 15.2092340975999996 28.1627499999999991
  3.0194576352000002 15.1141246104000011 21.8662500000000009
  2.9415997776000000 15.2230147152000015 24.2236499999999992
  0.7335061535999999 15.3357370704000022 21.3191999999999986
  4.3659680639999996 17.0681852184000000 21.5013000000000005
  5.1972224159999998 15.1917373584000011 24.9712999999999994
  5.4535134240000005 19.0792650672000015 24.9925499999999978
  5.3330598719999998 15.1304600616000009 27.2600000000000016
  5.3103061919999996 19.1994583752000025 27.8652999999999977
  6.4878594719999994 17.0453465544000018 24.2694000000000010
  6.6467325119999998 16.9206629328000027 21.9143000000000008
  8.7057996000000006 13.1234447208000020 26.9788999999999994
 10.7431600799999991 13.2015219840000011 27.9853499999999968
 13.2330167520000010 13.3349926848000013 22.0009000000000015
 11.1155552639999993 13.5241664999999998 21.2417499999999997
 13.2572604960000007 13.2524638176000007 24.3095999999999997
  8.6693534400000001 13.5730180151999988 24.7557500000000026
 18.5483569439999982 10.0051541832000002 29.9112499999999990
  7.5346898400000004 19.1148391896000014 27.7276999999999987
 11.0270776799999979 17.3446491816000012 21.7372000000000014
  8.7120014880000003 17.1649592183999999 24.9996000000000009
  8.7233984639999989 17.0752303655999995 27.2492500000000035
 11.0273998559999988 16.9913853719999999 27.3702999999999967
  7.8037067999999996 15.1967696064000002 20.7334999999999994
  9.9793613279999995 15.4367304168000015 24.0992999999999995
  7.4859204479999999 15.2091179688000011 28.1015000000000015
  9.8647472159999996 15.3203693592000008 21.7898999999999994
  7.7250153119999991 19.2433937712000009 21.4517500000000005
 12.0809153760000001 15.1621245144000003 25.0312500000000000
 12.0751564799999986 19.1622971592000013 25.1459499999999991
 12.0915471839999995 14.9659442616000007 27.2556499999999993
 12.1509081119999998 19.1280778728000023 27.4631000000000007
 12.9815986560000010 17.1610882583999995 24.3564000000000007
 13.3203667199999991 17.2182623375999988 22.0913500000000020
 18.5963208959999982 15.0396086304000001 27.1255999999999986
 15.4348480800000001 13.2754960296000011 24.9035499999999992
 16.2835804799999977 19.1537423376000007 24.2127000000000017
 17.7375204959999984  5.3472280152000007 29.9418499999999987
 16.5361664639999972 15.2981500488000020 21.9335500000000003
 14.2543952160000007 15.2144211840000008 27.9199500000000000
 15.2562014880000003 17.1464173200000012 24.9240500000000011
 19.6196726879999979 17.2520171088000005 24.2803500000000021
 16.6151801279999987 19.2313937951999989 21.8355999999999995
 16.3853880959999998 15.2911823208000008 24.1983499999999978
 19.7307831359999994 13.4490698760000011 23.8787999999999982
 14.3785940639999996 15.2068728120000003 21.3318499999999993
 14.2471059839999992 19.0800392591999994 28.3051500000000011
 17.5865810399999987 17.2783396367999984 21.1073500000000003
 18.6488355839999969 19.1687229527999996 26.9836000000000027
 17.5193267999999982 17.1526108560000026 27.0632500000000000
 15.3046487039999981 13.3610442456000005 27.1578499999999998
 17.4525558240000009 13.3358830056000013 21.2164999999999999
 11.8689235679999996 -0.0086502794736000 27.4735999999999976
  9.7953585600000004 19.1864132400000003 24.5990499999999983
 14.2622482559999995 19.3321935936000031 21.6688499999999991
  2.6266606559999999  5.6546983680000000 30.0167499999999983
 13.6965071999999992  7.5760106544000001 29.9150999999999989
  4.1821666559999997  2.6964952521600001 33.2916000000000025
  4.5430843199999993  5.6574467496000000 32.3712000000000018
  4.6047810240000002  1.6850134041600002 30.3295500000000011
  7.1020477440000001  0.0476515176000000 30.4318500000000007
  9.4936810079999994  1.9137174628800000 32.0604500000000030
  9.4248964319999988  4.3929202464000001 33.7470500000000015
  7.5216819839999998  5.4998599680000009 31.6939000000000028
 12.2072486399999995  5.3476538207999997 34.4833500000000015
  7.2974877600000001  2.9306302677600002 30.2164500000000018
 19.9192560959999980 13.4168247792000006 31.5697000000000010
 11.6490384479999989  2.8124305041600000 30.2694499999999991
 13.3255215360000001  0.3796525310160000 30.8377999999999979
 15.7260146399999989  1.6050045319199999 32.2483999999999966
 14.8611331679999985  4.4831136144000006 33.1841500000000025
 17.8454091840000011  2.4777860121600002 30.2995499999999964
 14.0454238080000007  4.6275391319999999 30.2084000000000010
 10.8706209600000001  6.6371867256000003 30.1429000000000009
  6.2307227519999993  9.3722522232000003 30.2666500000000021
  2.9240331311999999  7.9975581984000010 33.6497499999999974
  2.5741620768000000 10.6356174384000006 31.9749500000000033
 11.1415307039999991  9.9212317704000004 30.1139499999999991
 10.1129435519999991 12.7206713328000021 30.3302000000000014
  9.6908527199999988  8.6119569696000013 31.7690500000000000
  7.9890385439999996  7.6243976544000001 30.6012999999999984
  8.2220926080000005 11.3424934440000023 32.1979000000000042
 12.4082059199999986  7.8405520608000003 32.8179500000000033
 17.1868814399999970  6.5894190791999998 32.7082499999999996
 15.1045371359999994 19.3446193752000006 33.3113999999999990
 19.7820091199999979 10.3749469919999999 32.6829499999999982
 15.9028892639999988 11.9061439296000007 32.0217499999999973
 15.1837924319999988  8.8593500231999993 32.2272000000000034
 18.2463974879999995 12.6910971983999996 33.8519000000000005
 14.0479206720000001 10.6292303544000024 30.1769500000000015
  5.0704864319999992 15.9060456072000012 30.2740999999999971
  3.2742183072000000 13.4803859423999999 32.7127499999999998
  3.8894294879999998 13.7460499272000014 30.3266500000000008
  3.5452730304000002 17.9458866888000017 33.1773999999999987
  1.3916311775999999 15.2791823448000006 31.1581500000000027
  6.3768698400000003 13.7600628024000002 32.5523999999999987
  6.2084523359999997 16.8373598736000005 32.1643500000000060
  0.1482202905600000 18.0274091064000004 30.5339000000000027
  0.2939618395200000 12.5454329736000005 32.5048999999999992
 10.3612204319999996 18.5125565232000007 31.5971500000000027
 10.4732571359999991 17.2984299192000002 34.4841499999999996
  8.0459831519999998 14.9763571440000014 30.3920000000000030
  7.5480601439999999 19.1532004031999996 30.6511999999999993
 12.7098029280000002 13.6522178568000019 31.3694500000000005
 11.5539159839999996 14.4430936943999999 34.1312999999999960
 16.9796417280000007 16.9882498943999991 32.5956000000000046
 19.7626382880000016 16.2499029840000020 33.0085499999999996
 17.2096753919999976 13.6737016848000010 30.3236999999999988
 13.3862114399999985 18.5888531448000016 30.9190499999999986
 10.9737575519999986 15.8220070656000011 30.1186000000000007
 14.9800563840000009 15.5443818143999994 30.7836500000000015
  0.1299899616000000  3.9209340936000006 30.0225499999999990
  0.8747279760000000 20.8027712976000032 14.2636500000000002
  1.7979152495999999 22.8691284551999985 16.3608000000000011
  4.0904673119999995 23.0602764600000008 18.1774999999999984
  2.7672421536000003 25.8214322279999990 19.0122500000000016
  6.2026531679999994 25.7401807775999991 14.9528999999999996
  0.3161170776000000 25.1532658224000016 17.4008500000000019
  4.6863720959999995 20.1593403264000024 18.8354999999999997
  7.5810429119999991 20.7247714535999989 19.4033000000000015
  9.3108461279999997 21.2663574672000024 16.9091999999999985
 10.2913485119999990 21.8950400808000012 18.9171499999999995
  6.7720992480000000 23.5871528256000005 19.1906999999999996
  8.5553836799999985 23.8480555295999999 15.4980499999999992
 11.4230319839999996 24.0727260479999998 18.9380500000000005
 11.2514732639999995 25.3037687471999995 16.1154499999999992
 12.1138981440000002 20.5565395320000022 16.6171999999999969
 15.4586488319999980 20.4219462528000015 19.0301500000000026
 14.8141357439999997 22.0573107240000006 16.5303499999999985
 14.3372347199999997 23.6617462248000017 19.1198499999999996
 17.7727584959999980 22.6594385519999975 15.9415499999999994
 17.9260337280000002 22.2341361767999999 18.9291499999999999
 16.2837415679999999 24.8951114999999987 17.1679500000000012
 17.9275640639999985 24.8917437648000011 19.1023500000000013
  0.5107254767999999 29.0272838808000024 17.7200999999999986
  4.4988656640000002 29.5891537247999992 18.8382500000000022
  4.8405735839999995 27.1553650439999998 17.2345000000000006
  1.5543622751999999 30.8020803312000027 15.4772500000000015
  6.5354609760000004 32.1473163504000041 16.6132999999999988
  0.3582879024000000 31.0281443952000018 19.0801000000000016
  7.3493580959999996 26.3906181864000011 18.5658500000000011
  9.6804625439999992 28.1754017136000030 18.9738499999999988
  7.4354999039999994 30.2584427088000005 18.8003499999999981
 11.7742843680000000 30.4102230504000026 18.9061000000000021
 12.6540262079999994 27.8864732592000024 17.0263999999999989
 19.8401618879999972 27.3049389383999994 19.2945500000000010
 17.2820039039999997 31.7273171904000009 19.4484999999999992
 15.3876895679999990 27.8499701064000007 15.6030499999999996
 14.5967877599999998 26.6565144288000013 18.9077500000000001
 17.1478578719999994 28.5123687815999993 19.2342000000000013
 14.7404782559999994 30.2836039488000033 19.2316000000000003
 18.2496997919999977 29.0812450632000008 16.4634000000000000
 18.6903962879999987 32.0301036816000035 15.6347999999999985
 18.1221583680000009 19.5476125176000011 17.8336500000000022
  4.3055197920000001 32.5867090200000007 18.8105000000000011
  3.8678678592000000 32.8778439216000038 15.2852499999999996
  1.3607264448000000 33.8379581303999970 18.7138999999999989
  4.1541776159999992 35.1412329432000021 17.3436500000000002
  3.2040524015999998 37.5283378463999995 18.8653999999999975
  0.3482235268800000 36.6735911688000016 18.9704499999999996
 10.4716865279999993 32.6944378368000059 18.7828499999999998
  7.0234770719999995 36.1582502640000030 17.5436499999999995
  7.1597575199999994 33.9675965807999987 19.6203000000000003
  8.8505774399999986 33.9982932935999997 16.5215999999999994
 11.6461388640000010 34.4188730975999988 17.6046000000000014
 11.7046138079999995 36.8583520896000039 19.2964999999999982
 14.9373680640000011 37.7910599016000006 16.7251499999999993
 18.2741851679999989 37.8102985728000007 18.0880000000000010
 14.6766068640000000 35.9956312344000011 19.1899999999999977
 17.5159842240000003 33.6688358880000038 17.8590499999999999
 13.8876783840000009 33.0936886511999973 18.9282499999999985
 17.2058092800000004 35.7723929711999986 19.0621000000000009
  0.2425888627200000 23.1616181927999989 18.9058499999999974
  2.0073377039999998 21.1835963423999978 24.9441999999999986
  1.9644721871999999 21.0168353856000003 27.2282000000000011
  2.9928901967999999 22.7632189896000021 21.9731000000000023
  0.8908770479999999 22.9816572624000024 27.7683999999999997
  3.0676028112000000 23.1561988488000026 24.1939500000000010
  0.7634564399999999 23.0263668503999988 21.2510000000000012
  4.0672706400000003 20.7825261768000011 21.2677499999999995
  4.1040792479999997 21.2011317912000017 27.9720499999999994
  4.0238815872000000 24.9032405160000003 21.6473500000000030
  2.0747570592000000 25.0194467352000025 27.3873499999999979
  4.2360908640000003 24.9259243415999983 28.1453999999999986
  1.9854981983999997 25.0681047024000030 25.0768500000000003
  5.2863443519999995 23.1082376544000034 25.0842500000000008
  5.2777664159999995 23.0602377504000025 27.3577999999999975
  6.1875914400000003 20.8643582712000004 22.2430500000000002
  6.4277736479999996 24.8031762000000029 22.0092499999999980
  6.4006705919999991 21.1816608624000011 24.4482999999999997
  6.5163720480000000 25.0183628664000004 24.3863500000000002
  0.6255047040000000 38.7029806584000013 27.5282000000000018
 14.0727684960000001 38.5901808839999987 28.0246500000000012
  8.4859547519999996 21.0109515264000031 25.4153499999999966
  8.6937582720000002 21.1618415472000017 27.7795999999999985
  7.6726214399999995 22.7413093560000021 21.9263499999999993
  9.9156912959999985 22.9599411768000010 22.2073999999999998
  9.6482046720000003 22.9397734752000027 24.5397999999999996
  7.4348555520000001 23.1422633928000003 28.2515499999999982
 10.9109332319999979 21.2547832967999994 21.1121000000000016
 11.0090358240000015 21.1264222632000020 27.9789500000000011
 10.8786753599999990 25.0703111496000020 21.7150499999999980
  8.6664538560000004 24.9632016864000015 25.0925500000000028
 10.8171800159999982 24.9458210760000014 28.3191000000000024
  8.6153084159999995 24.9988532279999980 27.4200000000000017
 11.8821327839999995 22.9699669632000010 25.1481500000000011
 12.0797474879999989 23.1091666847999981 27.4541499999999985
 13.0816745759999993 21.3288734711999979 21.9677499999999988
 13.1318132159999994 25.1911625208000025 22.1965000000000003
 13.0479669119999997 24.9056792208000033 24.5850000000000009
 13.0002848639999993 21.0544611167999989 24.2256999999999998
 19.6638108000000003 20.9751451463999992 22.1052999999999997
 19.7139091679999972 24.7855246224000005 22.0366999999999997
 17.5439329920000020 21.3157896264000009 21.1916499999999992
 15.2950639680000009 21.0815965464000001 27.4696500000000015
 15.1660727519999998 21.0382805040000029 25.1533500000000032
 14.2705040159999985 22.9453476575999993 28.2900500000000008
 16.3570768800000010 23.0187797688000018 24.4353499999999997
 16.3565130719999985 23.0874505992000039 22.2689500000000002
 14.2411054559999997 23.2837469808000002 21.4611999999999981
 17.6564932319999990 21.0558546624000016 27.9598500000000030
 15.4353716159999994 24.8561309327999993 27.6716000000000015
 17.6631381119999986 24.7805310839999997 28.3219500000000011
 15.2690079839999999 24.9321178776000032 25.3404000000000025
 17.4512671200000007 25.0628401967999999 21.4644000000000013
 18.6048988319999999 23.0418119808000021 25.1152499999999996
 18.7577713439999982 22.9573863432000032 27.3874999999999993
 19.7108887680000002 21.1688479847999993 24.3132999999999981
 19.7016664800000001 24.8655760751999999 24.3630999999999993
  0.6789375935999999 26.8559849976000002 21.4338000000000015
  0.9063052511999999 26.8552495152000006 28.1451999999999991
  3.1150110095999999 27.0643200648000004 21.8465500000000006
  3.1207175519999999 26.9195848704000014 24.2323500000000003
  1.8775934016000000 28.8212713895999997 25.0639500000000019
  1.8829697135999999 28.9223808648000009 27.3613500000000016
  4.1438679839999999 28.9205615136000027 27.8760000000000012
  4.3173194879999999 28.9813355856000001 21.1779500000000027
  3.0218054928000000 30.6839386320000003 24.2078500000000005
  0.8575157231999999 30.7294611216000035 21.2751999999999981
  3.1502530367999997 30.8130738576000027 21.9025999999999996
  0.8349191040000000 30.8302609200000006 28.2036000000000016
  5.1693541920000001 30.7395643272000001 25.0528499999999994
  5.2619797920000000 26.9152493952000036 27.4420000000000002
  5.2693898399999997 26.9640234911999990 25.0635000000000012
  5.2178416800000003 30.8140028880000010 27.3625999999999969
  6.4526617440000003 28.7636327952000030 21.9133999999999993
  6.3701444160000005 28.8419036063999989 24.2648000000000010
 12.0136611359999996 26.6379725304000026 27.2149999999999999
  7.4067456959999998 26.8296624695999988 21.0001500000000014
  7.4587771200000006 26.9009268432000006 28.1556499999999978
  9.6354384480000004 27.0230943408000002 21.9085999999999999
  9.7086932159999986 26.8943075016000037 24.3397499999999987
  8.5977498239999992 28.8142649520000020 25.0381499999999981
  8.4936869759999993 28.8334262040000020 27.3683500000000031
 10.7653499519999993 28.8249100919999997 28.0266999999999982
 11.0181372959999990 29.0701354080000023 21.4437500000000014
  7.5855533760000000 30.7634868600000004 21.3840000000000003
  9.8024061600000003 30.7694094287999995 24.5600000000000023
  9.7628993279999996 30.8184157823999989 22.2382999999999988
  7.4875715999999999 30.8216673888000017 27.9886499999999998
 11.8916369760000009 26.9610815616000004 24.9753499999999988
 12.0423347999999990 30.8808543672000049 25.1792000000000016
 11.8308262559999999 30.8196931992000032 27.4702500000000001
 13.0032247199999986 28.8559939008000015 24.3798500000000011
 13.2933039359999992 28.9437485640000034 22.0573999999999977
 19.9348010880000004 28.9819936488000032 21.9827000000000012
 17.6227050239999983 28.9158776519999989 21.5994500000000009
 17.4883173599999999 28.5298655208000014 27.8587999999999987
 16.4491789439999998 26.9546944776000039 22.2128499999999995
 14.3605119360000000 27.0427201080000010 21.3113500000000009
 14.1516210720000011 26.6742821352000021 28.2270499999999984
 16.4103970080000003 26.8541269368000037 24.4696999999999996
 15.1835910719999987 28.6299298368000024 27.5299000000000014
 15.1539911519999997 28.7121490271999988 25.2567500000000003
 14.1088924799999997 30.6963257039999995 27.8235500000000009
 16.1982441119999976 30.6446870976000021 24.7653500000000015
 14.4878520000000002 30.8040545208000012 21.5255499999999991
 16.5811905599999996 30.6752289719999993 22.5673500000000011
 18.4917345120000007 26.5584630120000007 27.3878500000000038
 18.5819840640000002 30.7601965440000029 25.1054500000000012
 18.7699334879999995 30.4147907832000008 27.4185500000000033
 18.6662330880000020 26.8929139560000010 25.1363999999999983
 19.8846221759999970 28.7864327495999994 24.5480499999999999
 15.2030424479999979 32.7703473624000026 25.2830999999999975
 20.0207012639999995 32.7876505536000025 22.0032999999999994
  6.5046126239999991 32.5935219095999997 22.3359999999999985
  1.9975153632000000 32.5833025752000012 24.9572000000000003