O Zn
1.0
  6.499722000000   0.000000000000   0.000000000000
 -3.249861000000   5.628924369537   0.000000000000
  0.000000000000   0.000000000000  20.413242000000
O Zn
 16  16
Selective dynamics
Direct
  0.000000000000   0.000000000000   0.097564386156  T T T
  0.500000000000   0.000000000000   0.097564386156  T T T
  0.000000000000   0.500000000000   0.097564386156  T T T
  0.500000000000   0.500000000000   0.097564386156  T T T
  0.333400000000   0.166700000000   0.225094863677  T T T
  0.833400000000   0.166700000000   0.225094863677  T T T
  0.333400000000   0.666700000000   0.225094863677  T T T
  0.833400000000   0.666700000000   0.225094863677  T T T
  0.000000000000   0.000000000000   0.352625341197  T T T
  0.500000000000   0.000000000000   0.352625341197  T T T
  0.000000000000   0.500000000000   0.352625341197  T T T
  0.500000000000   0.500000000000   0.352625341197  T T T
  0.333400000000   0.166700000000   0.480155818718  T T T
  0.833400000000   0.166700000000   0.480155818718  T T T
  0.333400000000   0.666700000000   0.480155818718  T T T
  0.833400000000   0.666700000000   0.480155818718  T T T
  0.333400000000   0.166700000000   0.127530477520  T T T
  0.833400000000   0.166700000000   0.127530477520  T T T
  0.333400000000   0.666700000000   0.127530477520  T T T
  0.833400000000   0.666700000000   0.127530477520  T T T
  0.000000000000   0.000000000000   0.255060955041  T T T
  0.500000000000   0.000000000000   0.255060955041  T T T
  0.000000000000   0.500000000000   0.255060955041  T T T
  0.500000000000   0.500000000000   0.255060955041  T T T
  0.333400000000   0.166700000000   0.382591432561  T T T
  0.833400000000   0.166700000000   0.382591432561  T T T
  0.333400000000   0.666700000000   0.382591432561  T T T
  0.833400000000   0.666700000000   0.382591432561  T T T
  0.000000000000   0.000000000000   0.510121910082  T T T
  0.500000000000   0.000000000000   0.510121910082  T T T
  0.000000000000   0.500000000000   0.510121910082  T T T
  0.500000000000   0.500000000000   0.510121910082  T T T
