POSCAR Generated by VLAtoms at MaterialsSquare.com
1.0
16.34147 0.00000 0.00000
0.00000 16.34147 0.00000
0.00000 0.00000 18.17073
Mg Al O 
32 64 128 
Direct
0.12500 0.12500 0.66275 
0.25000 -0.00000 0.77517 
0.12500 0.37500 0.88758 
0.25000 0.25000 0.55034 
0.37500 0.12500 0.88758 
0.00000 0.00000 0.55034 
0.37500 0.37500 0.66275 
-0.00000 0.25000 0.77517 
0.12500 0.62500 0.66275 
0.25000 0.50000 0.77517 
0.12500 0.87500 0.88758 
0.25000 0.75000 0.55034 
0.37500 0.62500 0.88758 
-0.00000 0.50000 0.55034 
0.37500 0.87500 0.66275 
-0.00000 0.75000 0.77517 
0.62500 0.12500 0.66275 
0.75000 -0.00000 0.77517 
0.62500 0.37500 0.88758 
0.75000 0.25000 0.55034 
0.87500 0.12500 0.88758 
0.50000 0.00000 0.55034 
0.87500 0.37500 0.66275 
0.50000 0.25000 0.77517 
0.62500 0.62500 0.66275 
0.75000 0.50000 0.77517 
0.62500 0.87500 0.88758 
0.75000 0.75000 0.55034 
0.87500 0.62500 0.88758 
0.50000 0.50000 0.55034 
0.87500 0.87500 0.66275 
0.50000 0.75000 0.77517 
0.06250 0.43750 0.71896 
0.06250 0.31250 0.60654 
0.18750 0.31250 0.71896 
0.18750 0.43750 0.60654 
0.06250 0.18750 0.94379 
0.06250 0.06250 0.83138 
0.18750 0.06250 0.94379 
0.18750 0.18750 0.83138 
0.31250 0.43750 0.94379 
0.31250 0.31250 0.83138 
0.43750 0.31250 0.94379 
0.43750 0.43750 0.83138 
0.31250 0.18750 0.71896 
0.31250 0.06250 0.60654 
0.43750 0.06250 0.71896 
0.43750 0.18750 0.60654 
0.06250 0.93750 0.71896 
0.06250 0.81250 0.60654 
0.18750 0.81250 0.71896 
0.18750 0.93750 0.60654 
0.06250 0.68750 0.94379 
0.06250 0.56250 0.83138 
0.18750 0.56250 0.94379 
0.18750 0.68750 0.83138 
0.31250 0.93750 0.94379 
0.31250 0.81250 0.83138 
0.43750 0.81250 0.94379 
0.43750 0.93750 0.83138 
0.31250 0.68750 0.71896 
0.31250 0.56250 0.60654 
0.43750 0.56250 0.71896 
0.43750 0.68750 0.60654 
0.56250 0.43750 0.71896 
0.56250 0.31250 0.60654 
0.68750 0.31250 0.71896 
0.68750 0.43750 0.60654 
0.56250 0.18750 0.94379 
0.56250 0.06250 0.83138 
0.68750 0.06250 0.94379 
0.68750 0.18750 0.83138 
0.81250 0.43750 0.94379 
0.81250 0.31250 0.83138 
0.93750 0.31250 0.94379 
0.93750 0.43750 0.83138 
0.81250 0.18750 0.71896 
0.81250 0.06250 0.60654 
0.93750 0.06250 0.71896 
0.93750 0.18750 0.60654 
0.56250 0.93750 0.71896 
0.56250 0.81250 0.60654 
0.68750 0.81250 0.71896 
0.68750 0.93750 0.60654 
0.56250 0.68750 0.94379 
0.56250 0.56250 0.83138 
0.68750 0.56250 0.94379 
0.68750 0.68750 0.83138 
0.81250 0.93750 0.94379 
0.81250 0.81250 0.83138 
0.93750 0.81250 0.94379 
0.93750 0.93750 0.83138 
0.81250 0.68750 0.71896 
0.81250 0.56250 0.60654 
0.93750 0.56250 0.71896 
0.93750 0.68750 0.60654 
0.18069 0.43069 0.71283 
0.19431 0.05569 0.60042 
0.05569 0.05569 0.72509 
0.05569 0.19431 0.60042 
0.31931 0.06931 0.71283 
0.06931 0.43069 0.61267 
0.19431 0.19431 0.72509 
0.43069 0.06931 0.61267 
0.18069 0.18069 0.93766 
0.19431 0.30569 0.82525 
0.05569 0.30569 0.94992 
0.05569 0.44431 0.82525 
0.31931 0.31931 0.93766 
0.06931 0.18069 0.83750 
0.19431 0.44431 0.94992 
0.43069 0.31931 0.83750 
0.43069 0.43069 0.93766 
0.44431 0.05569 0.82525 
0.30569 0.05569 0.94992 
0.30569 0.19431 0.82525 
0.06931 0.06931 0.93766 
0.31931 0.43069 0.83750 
0.44431 0.19431 0.94992 
0.18069 0.06931 0.83750 
0.43069 0.18069 0.71283 
0.44431 0.30569 0.60042 
0.30569 0.30569 0.72509 
0.30569 0.44431 0.60042 
0.06931 0.31931 0.71283 
0.31931 0.18069 0.61267 
0.44431 0.44431 0.72509 
0.18069 0.31931 0.61267 
0.18069 0.93069 0.71283 
0.19431 0.55569 0.60042 
0.05569 0.55569 0.72509 
0.05569 0.69431 0.60042 
0.31931 0.56931 0.71283 
0.06931 0.93069 0.61267 
0.19431 0.69431 0.72509 
0.43069 0.56931 0.61267 
0.18069 0.68069 0.93766 
0.19431 0.80569 0.82525 
0.05569 0.80569 0.94992 
0.05569 0.94431 0.82525 
0.31931 0.81931 0.93766 
0.06931 0.68069 0.83750 
0.19431 0.94431 0.94992 
0.43069 0.81931 0.83750 
0.43069 0.93069 0.93766 
0.44431 0.55569 0.82525 
0.30569 0.55569 0.94992 
0.30569 0.69431 0.82525 
0.06931 0.56931 0.93766 
0.31931 0.93069 0.83750 
0.44431 0.69431 0.94992 
0.18069 0.56931 0.83750 
0.43069 0.68069 0.71283 
0.44431 0.80569 0.60042 
0.30569 0.80569 0.72509 
0.30569 0.94431 0.60042 
0.06931 0.81931 0.71283 
0.31931 0.68069 0.61267 
0.44431 0.94431 0.72509 
0.18069 0.81931 0.61267 
0.68069 0.43069 0.71283 
0.69431 0.05569 0.60042 
0.55569 0.05569 0.72509 
0.55569 0.19431 0.60042 
0.81931 0.06931 0.71283 
0.56931 0.43069 0.61267 
0.69431 0.19431 0.72509 
0.93069 0.06931 0.61267 
0.68069 0.18069 0.93766 
0.69431 0.30569 0.82525 
0.55569 0.30569 0.94992 
0.55569 0.44431 0.82525 
0.81931 0.31931 0.93766 
0.56931 0.18069 0.83750 
0.69431 0.44431 0.94992 
0.93069 0.31931 0.83750 
0.93069 0.43069 0.93766 
0.94431 0.05569 0.82525 
0.80569 0.05569 0.94992 
0.80569 0.19431 0.82525 
0.56931 0.06931 0.93766 
0.81931 0.43069 0.83750 
0.94431 0.19431 0.94992 
0.68069 0.06931 0.83750 
0.93069 0.18069 0.71283 
0.94431 0.30569 0.60042 
0.80569 0.30569 0.72509 
0.80569 0.44431 0.60042 
0.56931 0.31931 0.71283 
0.81931 0.18069 0.61267 
0.94431 0.44431 0.72509 
0.68069 0.31931 0.61267 
0.68069 0.93069 0.71283 
0.69431 0.55569 0.60042 
0.55569 0.55569 0.72509 
0.55569 0.69431 0.60042 
0.81931 0.56931 0.71283 
0.56931 0.93069 0.61267 
0.69431 0.69431 0.72509 
0.93069 0.56931 0.61267 
0.68069 0.68069 0.93766 
0.69431 0.80569 0.82525 
0.55569 0.80569 0.94992 
0.55569 0.94431 0.82525 
0.81931 0.81931 0.93766 
0.56931 0.68069 0.83750 
0.69431 0.94431 0.94992 
0.93069 0.81931 0.83750 
0.93069 0.93069 0.93766 
0.94431 0.55569 0.82525 
0.80569 0.55569 0.94992 
0.80569 0.69431 0.82525 
0.56931 0.56931 0.93766 
0.81931 0.93069 0.83750 
0.94431 0.69431 0.94992 
0.68069 0.56931 0.83750 
0.93069 0.68069 0.71283 
0.94431 0.80569 0.60042 
0.80569 0.80569 0.72509 
0.80569 0.94431 0.60042 
0.56931 0.81931 0.71283 
0.81931 0.68069 0.61267 
0.94431 0.94431 0.72509 
0.68069 0.81931 0.61267