POSCAR Generated by VLAtoms at MaterialsSquare.com
1.0
17.62999 0.00000 0.00000
0.00000 15.25997 0.00000
0.00000 0.00000 14.96126
Rb P H O 
16 16 32 64 
Direct
-0.00000 -0.00000 0.25000 
0.21639 -0.00000 0.37500 
0.21639 0.25000 0.00000 
-0.00000 0.25000 0.12500 
-0.00000 -0.00000 0.75000 
0.21639 -0.00000 0.87500 
0.21639 0.25000 0.50000 
-0.00000 0.25000 0.62500 
-0.00000 0.50000 0.25000 
0.21639 0.50000 0.37500 
0.21639 0.75000 0.00000 
-0.00000 0.75000 0.12500 
-0.00000 0.50000 0.75000 
0.21639 0.50000 0.87500 
0.21639 0.75000 0.50000 
-0.00000 0.75000 0.62500 
0.21639 0.25000 0.25000 
0.21639 -0.00000 0.12500 
0.00000 0.00000 0.00000 
-0.00000 0.25000 0.37500 
0.21639 0.25000 0.75000 
0.21639 -0.00000 0.62500 
-0.00000 -0.00000 0.50000 
-0.00000 0.25000 0.87500 
0.21639 0.75000 0.25000 
0.21639 0.50000 0.12500 
-0.00000 0.50000 0.00000 
-0.00000 0.75000 0.37500 
0.21639 0.75000 0.75000 
0.21639 0.50000 0.62500 
-0.00000 0.50000 0.50000 
-0.00000 0.75000 0.87500 
0.10820 0.18257 0.31250 
0.10820 0.06743 0.06250 
0.27476 0.12500 0.18750 
0.37442 0.12500 0.43750 
0.32459 0.43257 0.06250 
0.32459 0.31743 0.31250 
0.05837 0.37500 0.43750 
0.15802 0.37500 0.18750 
0.10820 0.18257 0.81250 
0.10820 0.06743 0.56250 
0.27476 0.12500 0.68750 
0.37442 0.12500 0.93750 
0.32459 0.43257 0.56250 
0.32459 0.31743 0.81250 
0.05837 0.37500 0.93750 
0.15802 0.37500 0.68750 
0.10820 0.68257 0.31250 
0.10820 0.56743 0.06250 
0.27476 0.62500 0.18750 
0.37442 0.62500 0.43750 
0.32459 0.93257 0.06250 
0.32459 0.81743 0.31250 
0.05837 0.87500 0.43750 
0.15802 0.87500 0.18750 
0.10820 0.68257 0.81250 
0.10820 0.56743 0.56250 
0.27476 0.62500 0.68750 
0.37442 0.62500 0.93750 
0.32459 0.93257 0.56250 
0.32459 0.81743 0.81250 
0.05837 0.87500 0.93750 
0.15802 0.87500 0.68750 
0.17664 0.17972 0.30903 
0.03975 0.17972 0.31597 
0.03975 0.07028 0.05903 
0.39304 0.32028 0.31597 
0.27722 0.20408 0.19097 
0.15556 0.45408 0.18403 
0.37196 0.04592 0.44097 
0.27722 0.04592 0.18403 
0.39304 0.42972 0.05903 
0.25614 0.42972 0.06597 
0.25614 0.32028 0.30903 
0.17664 0.07028 0.06597 
0.06083 0.45408 0.44097 
0.37196 0.20408 0.43403 
0.15556 0.29592 0.19097 
0.06083 0.29592 0.43403 
0.17664 0.17972 0.80903 
0.03975 0.17972 0.81597 
0.03975 0.07028 0.55903 
0.39304 0.32028 0.81597 
0.27722 0.20408 0.69097 
0.15556 0.45408 0.68403 
0.37196 0.04592 0.94097 
0.27722 0.04592 0.68403 
0.39304 0.42972 0.55903 
0.25614 0.42972 0.56597 
0.25614 0.32028 0.80903 
0.17664 0.07028 0.56597 
0.06083 0.45408 0.94097 
0.37196 0.20408 0.93403 
0.15556 0.29592 0.69097 
0.06083 0.29592 0.93403 
0.17664 0.67972 0.30903 
0.03975 0.67972 0.31597 
0.03975 0.57028 0.05903 
0.39304 0.82028 0.31597 
0.27722 0.70408 0.19097 
0.15556 0.95408 0.18403 
0.37196 0.54592 0.44097 
0.27722 0.54592 0.18403 
0.39304 0.92972 0.05903 
0.25614 0.92972 0.06597 
0.25614 0.82028 0.30903 
0.17664 0.57028 0.06597 
0.06083 0.95408 0.44097 
0.37196 0.70408 0.43403 
0.15556 0.79592 0.19097 
0.06083 0.79592 0.43403 
0.17664 0.67972 0.80903 
0.03975 0.67972 0.81597 
0.03975 0.57028 0.55903 
0.39304 0.82028 0.81597 
0.27722 0.70408 0.69097 
0.15556 0.95408 0.68403 
0.37196 0.54592 0.94097 
0.27722 0.54592 0.68403 
0.39304 0.92972 0.55903 
0.25614 0.92972 0.56597 
0.25614 0.82028 0.80903 
0.17664 0.57028 0.56597 
0.06083 0.95408 0.94097 
0.37196 0.70408 0.93403 
0.15556 0.79592 0.69097 
0.06083 0.79592 0.93403