POSCAR Generated by VLAtoms at MaterialsSquare.com
1.0
22.148999999999997 0 0
-11.0745 19.195799999999995 0
1.2246467991473533e-15 2.120365810580893e-15 20
C 
162 
cartesian
1.230500000000 	0.710429510000 	10.000092271286 
0.000000000000 	1.420859010000 	10.000081331389 
0.000000000000 	2.843296170000 	10.000897788010 
-1.230500000000 	3.553725680000 	10.000371068842 
-1.230500000000 	4.976162840000 	10.001918544958 
-2.461000000000 	5.686592350000 	10.000371827693 
3.691500000000 	0.710429510000 	10.000613443245 
2.461000000000 	1.420859010000 	10.001152803295 
2.461000000000 	2.843296170000 	10.012725381821 
1.230500000000 	3.553725680000 	10.011213487817 
1.230500000000 	4.976162840000 	10.057977329567 
0.000000000000 	5.686592350000 	10.023956157809 
6.152500000000 	0.710429510000 	10.000897230009 
4.922000000000 	1.420859010000 	10.003594792423 
4.922000000000 	2.843296170000 	10.039681623349 
3.691500000000 	3.553725680000 	10.074550151480 
3.691500000000 	4.976162840000 	10.385448200605 
2.461000000000 	5.686592350000 	10.339558171459 
-2.461000000000 	7.109029510000 	10.000900453113 
-3.691500000000 	7.819459010000 	10.000081831388 
-3.691500000000 	9.241896170000 	10.000092819916 
-4.922000000000 	9.952325680000 	10.000003955388 
-4.922000000000 	11.374762840000 	10.000002101417 
-6.152500000000 	12.085192350000 	10.000000041990 
0.000000000000 	7.109029510000 	10.058014497784 
-1.230500000000 	7.819459010000 	10.011240472235 
-1.230500000000 	9.241896170000 	10.012749871562 
-2.461000000000 	9.952325680000 	10.001158358249 
-2.461000000000 	11.374762840000 	10.000615412096 
-3.691500000000 	12.085192350000 	10.000026217554 
2.461000000000 	7.109029510000 	10.822306187112 
1.230500000000 	7.819459010000 	10.339680631600 
1.230500000000 	9.241896170000 	10.385293814586 
0.000000000000 	9.952325680000 	10.074630839908 
0.000000000000 	11.374762840000 	10.039649842025 
-1.230500000000 	12.085192350000 	10.003601279406 
-6.152500000000 	13.507629510000 	10.000000010449 
-7.383000000000 	14.218059010000 	10.000000000098 
-7.383000000000 	15.640496170000 	10.000000000011 
-8.613500000000 	16.350925680000 	10.000000000000 
-8.613500000000 	17.773362840000 	10.000000000000 
-9.844000000000 	18.483792350000 	10.000000000000 
-3.691500000000 	13.507629510000 	10.000006524049 
-4.922000000000 	14.218059010000 	10.000000130326 
-4.922000000000 	15.640496170000 	10.000000015190 
-6.152500000000 	16.350925680000 	10.000000000142 
-6.152500000000 	17.773362840000 	10.000000000008 
-7.383000000000 	18.483792350000 	10.000000000000 
-1.230500000000 	13.507629510000 	10.000896152311 
-2.461000000000 	14.218059010000 	10.000038166844 
-2.461000000000 	15.640496170000 	10.000004448495 
-3.691500000000 	16.350925680000 	10.000000088840 
-3.691500000000 	17.773362840000 	10.000000004850 
-4.922000000000 	18.483792350000 	10.000000000045 
8.613500000000 	0.710429510000 	10.000288705316 
7.383000000000 	1.420859010000 	10.002466118911 
7.383000000000 	2.843296170000 	10.027222601550 
6.152500000000 	3.553725680000 	10.109038013936 
6.152500000000 	4.976162840000 	10.563761514024 
4.922000000000 	5.686592350000 	11.058845986240 
11.074500000000 	0.710429510000 	10.000020437481 
9.844000000000 	1.420859010000 	10.000372199510 
9.844000000000 	2.843296170000 	10.004108576806 
8.613500000000 	3.553725680000 	10.035085601167 
8.613500000000 	4.976162840000 	10.181403814323 
7.383000000000 	5.686592350000 	10.726395241759 
13.535500000000 	0.710429510000 	10.000000318289 
12.305000000000 	1.420859010000 	10.000012358312 
12.305000000000 	2.843296170000 	10.000136418975 
11.074500000000 	3.553725680000 	10.002483713510 
11.074500000000 	4.976162840000 	10.012841595679 
9.844000000000 	5.686592350000 	10.109631353077 
4.922000000000 	7.109029510000 	12.564201597456 
3.691500000000 	7.819459010000 	12.258284215728 
3.691500000000 	9.241896170000 	12.561532389405 
2.461000000000 	9.952325680000 	11.057828710924 
2.461000000000 	11.374762840000 	10.562002803795 
1.230500000000 	12.085192350000 	10.108828600585 
7.383000000000 	7.109029510000 	11.759107427812 
6.152500000000 	7.819459010000 	13.302995646515 
6.152500000000 	9.241896170000 	13.746530340018 
4.922000000000 	9.952325680000 	13.298632690472 
4.922000000000 	11.374762840000 	11.752496223248 
3.691500000000 	12.085192350000 	10.723520530924 
9.844000000000 	7.109029510000 	10.265493654738 
8.613500000000 	7.819459010000 	11.062818220230 
8.613500000000 	9.241896170000 	11.205536166001 
7.383000000000 	9.952325680000 	12.262945812524 
7.383000000000 	11.374762840000 	11.202256923397 
6.152500000000 	12.085192350000 	11.058230468585 
1.230500000000 	13.507629510000 	10.027081209451 
0.000000000000 	14.218059010000 	10.002459017889 
0.000000000000 	15.640496170000 	10.000286608180 
-1.230500000000 	16.350925680000 	10.000012203131 
-1.230500000000 	17.773362840000 	10.000000666193 
-2.461000000000 	18.483792350000 	10.000000013301 
3.691500000000 	13.507629510000 	10.180042846591 
2.461000000000 	14.218059010000 	10.034854488134 
2.461000000000 	15.640496170000 	10.004062427295 
1.230500000000 	16.350925680000 	10.000368771627 
1.230500000000 	17.773362840000 	10.000020131970 
0.000000000000 	18.483792350000 	10.000000856934 
6.152500000000 	13.507629510000 	10.263332991629 
4.922000000000 	14.218059010000 	10.108686928973 
4.922000000000 	15.640496170000 	10.012667887854 
3.691500000000 	16.350925680000 	10.002451688633 
3.691500000000 	17.773362840000 	10.000133842514 
2.461000000000 	18.483792350000 	10.000012146307 
15.996500000000 	0.710429510000 	10.000000001091 
14.766000000000 	1.420859010000 	10.000000090274 
14.766000000000 	2.843296170000 	10.000000996506 
13.535500000000 	3.553725680000 	10.000038680819 
13.535500000000 	4.976162840000 	10.000199992246 
12.305000000000 	5.686592350000 	10.003640140489 
18.457500000000 	0.710429510000 	10.000000000001 
17.227000000000 	1.420859010000 	10.000000000145 
17.227000000000 	2.843296170000 	10.000000001601 
15.996500000000 	3.553725680000 	10.000000132529 
15.996500000000 	4.976162840000 	10.000000685218 
14.766000000000 	5.686592350000 	10.000026590292 
20.918500000000 	0.710429510000 	10.000000000000 
19.688000000000 	1.420859010000 	10.000000000000 
19.688000000000 	2.843296170000 	10.000000000001 
18.457500000000 	3.553725680000 	10.000000000100 
18.457500000000 	4.976162840000 	10.000000000517 
17.227000000000 	5.686592350000 	10.000000042732 
12.305000000000 	7.109029510000 	10.008815308533 
11.074500000000 	7.819459010000 	10.075237017013 
11.074500000000 	9.241896170000 	10.085340035863 
9.844000000000 	9.952325680000 	10.341535567835 
9.844000000000 	11.374762840000 	10.181450876439 
8.613500000000 	12.085192350000 	10.340511082538 
14.766000000000 	7.109029510000 	10.000064393566 
13.535500000000 	7.819459010000 	10.001171725100 
13.535500000000 	9.241896170000 	10.001329067340 
12.305000000000 	9.952325680000 	10.011340163321 
12.305000000000 	11.374762840000 	10.006024797319 
11.074500000000 	12.085192350000 	10.024104816442 
17.227000000000 	7.109029510000 	10.000000103483 
15.996500000000 	7.819459010000 	10.000004014593 
15.996500000000 	9.241896170000 	10.000004553682 
14.766000000000 	9.952325680000 	10.000082836982 
14.766000000000 	11.374762840000 	10.000044009598 
13.535500000000 	12.085192350000 	10.000375403220 
8.613500000000 	13.507629510000 	10.084733717947 
7.383000000000 	14.218059010000 	10.074561993976 
7.383000000000 	15.640496170000 	10.008690492838 
6.152500000000 	16.350925680000 	10.003585871444 
6.152500000000 	17.773362840000 	10.000195759789 
4.922000000000 	18.483792350000 	10.000037875891 
11.074500000000 	13.507629510000 	10.005998309078 
9.844000000000 	14.218059010000 	10.011253284462 
9.844000000000 	15.640496170000 	10.001311614441 
8.613500000000 	16.350925680000 	10.001153840306 
8.613500000000 	17.773362840000 	10.000062990416 
7.383000000000 	18.483792350000 	10.000025983824 
13.535500000000 	13.507629510000 	10.000093416374 
12.305000000000 	14.218059010000 	10.000373648005 
12.305000000000 	15.640496170000 	10.000043550141 
11.074500000000 	16.350925680000 	10.000081680480 
11.074500000000 	17.773362840000 	10.000004459098 
9.844000000000 	18.483792350000 	10.000003921614 



