POSCAR Generated by VLAtoms at MaterialsSquare.com
1.0
24.99349 0.00000 0.00000
0.00000 19.11071 0.00000
-1.02768 0.00000 29.00848
K P H O 
64 64 128 256 
Direct
0.12554 0.42414 0.35530 
0.12554 0.05259 0.10530 
0.23971 0.06119 0.48044 
0.24026 0.29612 0.47679 
0.23971 0.41554 0.23044 
0.24026 0.18061 0.22679 
0.37340 0.42527 0.36357 
0.37340 0.05147 0.11357 
0.37554 0.18578 0.35530 
0.37554 0.29096 0.10530 
0.48971 0.29956 0.48044 
0.49026 0.05775 0.47679 
0.48971 0.17718 0.23044 
0.49026 0.41898 0.22679 
0.12340 0.18690 0.36357 
0.12340 0.28983 0.11357 
0.12554 0.42414 0.85530 
0.12554 0.05259 0.60530 
0.23971 0.06119 0.98044 
0.24026 0.29612 0.97678 
0.23971 0.41554 0.73044 
0.24026 0.18061 0.72679 
0.37340 0.42527 0.86357 
0.37340 0.05147 0.61357 
0.37554 0.18578 0.85530 
0.37554 0.29096 0.60530 
0.48971 0.29956 0.98044 
0.49026 0.05775 0.97678 
0.48971 0.17718 0.73044 
0.49026 0.41898 0.72679 
0.12340 0.18690 0.86357 
0.12340 0.28983 0.61357 
0.62554 0.42414 0.35530 
0.62554 0.05259 0.10530 
0.73971 0.06119 0.48044 
0.74026 0.29612 0.47679 
0.73971 0.41554 0.23044 
0.74026 0.18061 0.22679 
0.87340 0.42527 0.36357 
0.87340 0.05147 0.11357 
0.87554 0.18578 0.35530 
0.87554 0.29096 0.10530 
0.98971 0.29956 0.48044 
0.99026 0.05775 0.47679 
0.98971 0.17718 0.23044 
0.99026 0.41898 0.22679 
0.62340 0.18690 0.36357 
0.62340 0.28983 0.11357 
0.62554 0.42414 0.85530 
0.62554 0.05259 0.60530 
0.73971 0.06119 0.98044 
0.74026 0.29612 0.97678 
0.73971 0.41554 0.73044 
0.74026 0.18061 0.72679 
0.87340 0.42527 0.86357 
0.87340 0.05147 0.61357 
0.87554 0.18578 0.85530 
0.87554 0.29096 0.60530 
0.98971 0.29956 0.98044 
0.99026 0.05775 0.97678 
0.98971 0.17718 0.73044 
0.99026 0.41898 0.72679 
0.62340 0.18690 0.86357 
0.62340 0.28983 0.61357 
0.11224 0.42949 0.48043 
0.11224 0.04725 0.23043 
0.24732 0.06835 0.35607 
0.24832 0.31308 0.35736 
0.24732 0.40838 0.10607 
0.24832 0.16365 0.10736 
0.36699 0.42453 0.48209 
0.36699 0.05220 0.23209 
0.36224 0.19112 0.48043 
0.36224 0.28561 0.23043 
0.49732 0.30672 0.35607 
0.49832 0.07471 0.35736 
0.49732 0.17001 0.10607 
0.49832 0.40202 0.10736 
0.11699 0.18617 0.48209 
0.11699 0.29057 0.23209 
0.11224 0.42949 0.98043 
0.11224 0.04725 0.73043 
0.24732 0.06835 0.85607 
0.24832 0.31308 0.85735 
0.24732 0.40838 0.60607 
0.24832 0.16365 0.60735 
0.36699 0.42453 0.98209 
0.36699 0.05220 0.73209 
0.36224 0.19112 0.98043 
0.36224 0.28561 0.73043 
0.49732 0.30672 0.85607 
0.49832 0.07471 0.85735 
0.49732 0.17001 0.60607 
0.49832 0.40202 0.60735 
0.11699 0.18617 0.98209 
0.11699 0.29057 0.73209 
0.61224 0.42949 0.48043 
0.61224 0.04725 0.23043 
0.74732 0.06835 0.35607 
0.74832 0.31308 0.35736 
0.74732 0.40838 0.10607 
0.74832 0.16365 0.10736 
0.86699 0.42453 0.48209 
0.86699 0.05220 0.23209 
0.86224 0.19112 0.48043 
0.86224 0.28561 0.23043 
0.99732 0.30672 0.35607 
0.99832 0.07471 0.35736 
0.99732 0.17001 0.10607 
0.99832 0.40202 0.10736 
0.61699 0.18617 0.48209 
0.61699 0.29057 0.23209 
0.61224 0.42949 0.98043 
0.61224 0.04725 0.73043 
0.74732 0.06835 0.85607 
0.74832 0.31308 0.85735 
0.74732 0.40838 0.60607 
0.74832 0.16365 0.60735 
0.86699 0.42453 0.98209 
0.86699 0.05220 0.73209 
0.86224 0.19112 0.98043 
0.86224 0.28561 0.73043 
0.99732 0.30672 0.85607 
0.99832 0.07471 0.85735 
0.99732 0.17001 0.60607 
0.99832 0.40202 0.60735 
0.61699 0.18617 0.98209 
0.61699 0.29057 0.73209 
0.11948 0.06028 0.44802 
0.11948 0.41645 0.19802 
0.18307 0.06942 0.29895 
0.18307 0.40731 0.04895 
0.25114 0.18178 0.38295 
0.24730 0.42122 0.38981 
0.25114 0.29495 0.13295 
0.24730 0.05551 0.13981 
0.30475 0.29975 0.29844 
0.30916 0.06616 0.28976 
0.30475 0.17698 0.04844 
0.30916 0.41057 0.03976 
0.36604 0.07934 0.45436 
0.36604 0.39740 0.20436 
0.42883 0.05565 0.29084 
0.42883 0.42108 0.04084 
0.36948 0.29864 0.44802 
0.36948 0.17809 0.19802 
0.43307 0.30779 0.29895 
0.43307 0.16894 0.04895 
0.00114 0.42015 0.38295 
0.49730 0.18285 0.38981 
0.00114 0.05658 0.13295 
0.49730 0.29388 0.13981 
0.05475 0.06138 0.29844 
0.05916 0.30453 0.28976 
0.05475 0.41535 0.04844 
0.05916 0.17221 0.03976 
0.11604 0.31770 0.45436 
0.11604 0.15903 0.20436 
0.17883 0.29402 0.29084 
0.17883 0.18271 0.04084 
0.11948 0.06028 0.94802 
0.11948 0.41645 0.69802 
0.18307 0.06942 0.79895 
0.18307 0.40731 0.54895 
0.25114 0.18178 0.88295 
0.24730 0.42122 0.88981 
0.25114 0.29495 0.63295 
0.24730 0.05551 0.63981 
0.30475 0.29975 0.79844 
0.30916 0.06616 0.78976 
0.30475 0.17698 0.54844 
0.30916 0.41057 0.53976 
0.36604 0.07934 0.95436 
0.36604 0.39740 0.70436 
0.42883 0.05565 0.79084 
0.42883 0.42108 0.54084 
0.36948 0.29864 0.94802 
0.36948 0.17809 0.69802 
0.43307 0.30779 0.79895 
0.43307 0.16894 0.54895 
0.00114 0.42015 0.88295 
0.49730 0.18285 0.88981 
0.00114 0.05658 0.63295 
0.49730 0.29388 0.63981 
0.05475 0.06138 0.79844 
0.05916 0.30453 0.78976 
0.05475 0.41535 0.54844 
0.05916 0.17221 0.53976 
0.11604 0.31770 0.95436 
0.11604 0.15903 0.70436 
0.17883 0.29402 0.79084 
0.17883 0.18271 0.54084 
0.61948 0.06028 0.44802 
0.61948 0.41645 0.19802 
0.68307 0.06942 0.29895 
0.68307 0.40731 0.04895 
0.75114 0.18178 0.38295 
0.74730 0.42122 0.38981 
0.75114 0.29495 0.13295 
0.74730 0.05551 0.13981 
0.80475 0.29975 0.29844 
0.80916 0.06616 0.28976 
0.80475 0.17698 0.04844 
0.80916 0.41057 0.03976 
0.86604 0.07934 0.45436 
0.86604 0.39740 0.20436 
0.92883 0.05565 0.29084 
0.92883 0.42108 0.04084 
0.86948 0.29864 0.44802 
0.86948 0.17809 0.19802 
0.93307 0.30779 0.29895 
0.93307 0.16894 0.04895 
0.50114 0.42015 0.38295 
0.99730 0.18285 0.38981 
0.50114 0.05658 0.13295 
0.99730 0.29388 0.13981 
0.55475 0.06138 0.29844 
0.55916 0.30453 0.28976 
0.55475 0.41535 0.04844 
0.55916 0.17221 0.03976 
0.61604 0.31770 0.45436 
0.61604 0.15903 0.20436 
0.67883 0.29402 0.29084 
0.67883 0.18271 0.04084 
0.61948 0.06028 0.94802 
0.61948 0.41645 0.69802 
0.68307 0.06942 0.79895 
0.68307 0.40731 0.54895 
0.75114 0.18178 0.88295 
0.74730 0.42122 0.88981 
0.75114 0.29495 0.63295 
0.74730 0.05551 0.63981 
0.80475 0.29975 0.79844 
0.80916 0.06616 0.78976 
0.80475 0.17698 0.54844 
0.80916 0.41057 0.53976 
0.86604 0.07934 0.95436 
0.86604 0.39740 0.70436 
0.92883 0.05565 0.79084 
0.92883 0.42108 0.54084 
0.86948 0.29864 0.94802 
0.86948 0.17809 0.69802 
0.93307 0.30779 0.79895 
0.93307 0.16894 0.54895 
0.50114 0.42015 0.88295 
0.99730 0.18285 0.88981 
0.50114 0.05658 0.63295 
0.99730 0.29388 0.63981 
0.55475 0.06138 0.79844 
0.55916 0.30453 0.78976 
0.55475 0.41535 0.54844 
0.55916 0.17221 0.53976 
0.61604 0.31770 0.95436 
0.61604 0.15903 0.70436 
0.67883 0.29402 0.79084 
0.67883 0.18271 0.54084 
0.10092 0.01201 0.44305 
0.10092 0.46472 0.19305 
0.13522 0.36673 0.45131 
0.13522 0.11000 0.20131 
0.14486 0.13189 0.45265 
0.14486 0.34484 0.20265 
0.15462 0.02225 0.26608 
0.15462 0.45448 0.01608 
0.20351 0.10348 0.32183 
0.20926 0.34344 0.32071 
0.20351 0.37326 0.07183 
0.22162 0.01618 0.38837 
0.20926 0.13329 0.07071 
0.22162 0.46056 0.13837 
0.26475 0.37200 0.39395 
0.26475 0.10474 0.14395 
0.27130 0.13313 0.38357 
0.27130 0.34360 0.13357 
0.29199 0.03418 0.32894 
0.29199 0.44256 0.07894 
0.30296 0.29153 0.33491 
0.30872 0.16983 0.00064 
0.30296 0.18520 0.08491 
0.30872 0.30690 0.25064 
0.32214 0.09219 0.25907 
0.32214 0.38455 0.00907 
0.34348 0.00992 0.45525 
0.34348 0.46682 0.20525 
0.40776 0.01940 0.27005 
0.40776 0.45733 0.02005 
0.47677 0.01238 0.38406 
0.47677 0.46435 0.13406 
0.35092 0.25038 0.44305 
0.35092 0.22636 0.19305 
0.38522 0.12837 0.45131 
0.38522 0.34837 0.20131 
0.39486 0.37026 0.45265 
0.39486 0.10648 0.20265 
0.40462 0.26062 0.26608 
0.40462 0.21612 0.01608 
0.45351 0.34184 0.32183 
0.45926 0.10507 0.32071 
0.45351 0.13489 0.07183 
0.47162 0.25454 0.38837 
0.45926 0.37166 0.07071 
0.47162 0.22219 0.13837 
0.01475 0.13363 0.39395 
0.01475 0.34310 0.14395 
0.02130 0.37150 0.38357 
0.02130 0.10523 0.13357 
0.04199 0.27254 0.32894 
0.04199 0.20419 0.07894 
0.05296 0.05316 0.33491 
0.05872 0.40820 0.00064 
0.05296 0.42357 0.08491 
0.05872 0.06853 0.25064 
0.07214 0.33055 0.25907 
0.07214 0.14618 0.00907 
0.09348 0.24828 0.45525 
0.09348 0.22845 0.20525 
0.15776 0.25777 0.27005 
0.15776 0.21897 0.02005 
0.22677 0.25075 0.38406 
0.22677 0.22599 0.13406 
0.10092 0.01201 0.94305 
0.10092 0.46472 0.69305 
0.13522 0.36673 0.95131 
0.13522 0.11000 0.70131 
0.14486 0.13189 0.95265 
0.14486 0.34484 0.70265 
0.15462 0.02225 0.76608 
0.15462 0.45448 0.51608 
0.20351 0.10348 0.82183 
0.20926 0.34344 0.82071 
0.20351 0.37326 0.57183 
0.22162 0.01618 0.88837 
0.20926 0.13329 0.57071 
0.22162 0.46056 0.63837 
0.26475 0.37200 0.89395 
0.26475 0.10474 0.64395 
0.27130 0.13313 0.88357 
0.27130 0.34360 0.63357 
0.29199 0.03418 0.82894 
0.29199 0.44256 0.57894 
0.30296 0.29153 0.83491 
0.30872 0.16983 0.50064 
0.30296 0.18520 0.58491 
0.30872 0.30690 0.75064 
0.32214 0.09219 0.75907 
0.32214 0.38455 0.50907 
0.34348 0.00992 0.95525 
0.34348 0.46682 0.70525 
0.40776 0.01940 0.77005 
0.40776 0.45733 0.52005 
0.47677 0.01238 0.88406 
0.47677 0.46435 0.63406 
0.35092 0.25038 0.94305 
0.35092 0.22636 0.69305 
0.38522 0.12837 0.95131 
0.38522 0.34837 0.70131 
0.39486 0.37026 0.95265 
0.39486 0.10648 0.70265 
0.40462 0.26062 0.76608 
0.40462 0.21612 0.51608 
0.45351 0.34184 0.82183 
0.45926 0.10507 0.82071 
0.45351 0.13489 0.57183 
0.47162 0.25454 0.88837 
0.45926 0.37166 0.57071 
0.47162 0.22219 0.63837 
0.01475 0.13363 0.89395 
0.01475 0.34310 0.64395 
0.02130 0.37150 0.88357 
0.02130 0.10523 0.63357 
0.04199 0.27254 0.82894 
0.04199 0.20419 0.57894 
0.05296 0.05316 0.83491 
0.05872 0.40820 0.50064 
0.05296 0.42357 0.58491 
0.05872 0.06853 0.75064 
0.07214 0.33055 0.75907 
0.07214 0.14618 0.50907 
0.09348 0.24828 0.95525 
0.09348 0.22845 0.70525 
0.15776 0.25777 0.77005 
0.15776 0.21897 0.52005 
0.22677 0.25075 0.88406 
0.22677 0.22599 0.63406 
0.60092 0.01201 0.44305 
0.60092 0.46472 0.19305 
0.63522 0.36673 0.45131 
0.63522 0.11000 0.20131 
0.64486 0.13189 0.45265 
0.64486 0.34484 0.20265 
0.65462 0.02225 0.26608 
0.65462 0.45448 0.01608 
0.70351 0.10348 0.32183 
0.70926 0.34344 0.32071 
0.70351 0.37326 0.07183 
0.72162 0.01618 0.38837 
0.70926 0.13329 0.07071 
0.72162 0.46056 0.13837 
0.76475 0.37200 0.39395 
0.76475 0.10474 0.14395 
0.77130 0.13313 0.38357 
0.77130 0.34360 0.13357 
0.79199 0.03418 0.32894 
0.79199 0.44256 0.07894 
0.80296 0.29153 0.33491 
0.80872 0.16983 0.00064 
0.80296 0.18520 0.08491 
0.80872 0.30690 0.25064 
0.82214 0.09219 0.25907 
0.82214 0.38455 0.00907 
0.84348 0.00992 0.45525 
0.84348 0.46682 0.20525 
0.90776 0.01940 0.27005 
0.90776 0.45733 0.02005 
0.97677 0.01238 0.38406 
0.97677 0.46435 0.13406 
0.85092 0.25038 0.44305 
0.85092 0.22636 0.19305 
0.88522 0.12837 0.45131 
0.88522 0.34837 0.20131 
0.89486 0.37026 0.45265 
0.89486 0.10648 0.20265 
0.90462 0.26062 0.26608 
0.90462 0.21612 0.01608 
0.95351 0.34184 0.32183 
0.95926 0.10507 0.32071 
0.95351 0.13489 0.07183 
0.97162 0.25454 0.38837 
0.95926 0.37166 0.07071 
0.97162 0.22219 0.13837 
0.51475 0.13363 0.39395 
0.51475 0.34310 0.14395 
0.52130 0.37150 0.38357 
0.52130 0.10523 0.13357 
0.54199 0.27254 0.32894 
0.54199 0.20419 0.07894 
0.55296 0.05316 0.33491 
0.55872 0.40820 0.00064 
0.55296 0.42357 0.08491 
0.55872 0.06853 0.25064 
0.57214 0.33055 0.25907 
0.57214 0.14618 0.00907 
0.59348 0.24828 0.45525 
0.59348 0.22845 0.20525 
0.65776 0.25777 0.27005 
0.65776 0.21897 0.02005 
0.72677 0.25075 0.38406 
0.72677 0.22599 0.13406 
0.60092 0.01201 0.94305 
0.60092 0.46472 0.69305 
0.63522 0.36673 0.95131 
0.63522 0.11000 0.70131 
0.64486 0.13189 0.95265 
0.64486 0.34484 0.70265 
0.65462 0.02225 0.76608 
0.65462 0.45448 0.51608 
0.70351 0.10348 0.82183 
0.70926 0.34344 0.82071 
0.70351 0.37326 0.57183 
0.72162 0.01618 0.88837 
0.70926 0.13329 0.57071 
0.72162 0.46056 0.63837 
0.76475 0.37200 0.89395 
0.76475 0.10474 0.64395 
0.77130 0.13313 0.88357 
0.77130 0.34360 0.63357 
0.79199 0.03418 0.82894 
0.79199 0.44256 0.57894 
0.80296 0.29153 0.83491 
0.80872 0.16983 0.50064 
0.80296 0.18520 0.58491 
0.80872 0.30690 0.75064 
0.82214 0.09219 0.75907 
0.82214 0.38455 0.50907 
0.84348 0.00992 0.95525 
0.84348 0.46682 0.70525 
0.90776 0.01940 0.77005 
0.90776 0.45733 0.52005 
0.97677 0.01238 0.88406 
0.97677 0.46435 0.63406 
0.85092 0.25038 0.94305 
0.85092 0.22636 0.69305 
0.88522 0.12837 0.95131 
0.88522 0.34837 0.70131 
0.89486 0.37026 0.95265 
0.89486 0.10648 0.70265 
0.90462 0.26062 0.76608 
0.90462 0.21612 0.51608 
0.95351 0.34184 0.82183 
0.95926 0.10507 0.82071 
0.95351 0.13489 0.57183 
0.97162 0.25454 0.88837 
0.95926 0.37166 0.57071 
0.97162 0.22219 0.63837 
0.51475 0.13363 0.89395 
0.51475 0.34310 0.64395 
0.52130 0.37150 0.88357 
0.52130 0.10523 0.63357 
0.54199 0.27254 0.82894 
0.54199 0.20419 0.57894 
0.55296 0.05316 0.83491 
0.55872 0.40820 0.50064 
0.55296 0.42357 0.58491 
0.55872 0.06853 0.75064 
0.57214 0.33055 0.75907 
0.57214 0.14618 0.50907 
0.59348 0.24828 0.95525 
0.59348 0.22845 0.70525 
0.65776 0.25777 0.77005 
0.65776 0.21897 0.52005 
0.72677 0.25075 0.88406 
0.72677 0.22599 0.63406