POSCAR Generated by VLAtoms at MaterialsSquare.com
1.0
22.148999999999997 0 0
-11.0745 19.195799999999995 0
1.2246467991473533e-15 2.120365810580893e-15 20
C 
162 
Direct
0.074060371974 	0.037009632836 	0.027767501203 
0.037009632576 	0.074019265152 	0.027757224432 
0.074060371800 	0.148120743600 	0.055545278850 
0.037009632663 	0.185130376437 	0.055535002275 
0.074060371887 	0.259231854885 	0.083323056693 
0.037009632750 	0.296241487721 	0.083312780118 
0.185171483085 	0.037009632836 	0.055545278980 
0.148120743687 	0.074019265152 	0.055535002210 
0.185171482911 	0.148120743600 	0.083323056628 
0.148120743774 	0.185130376437 	0.083312780053 
0.185171482998 	0.259231854885 	0.111100834471 
0.148120743861 	0.296241487721 	0.111090557895 
0.296282594196 	0.037009632836 	0.083323056758 
0.259231854798 	0.074019265152 	0.083312779987 
0.296282594022 	0.148120743600 	0.111100834406 
0.259231854885 	0.185130376437 	0.111090557830 
0.296282594109 	0.259231854885 	0.138878612249 
0.259231854972 	0.296241487721 	0.138868335673 
0.074060371974 	0.370342966170 	0.111100834536 
0.037009632576 	0.407352598485 	0.111090557765 
0.074060371800 	0.481454076933 	0.138878612183 
0.037009632663 	0.518463709770 	0.138868335608 
0.074060371887 	0.592565188218 	0.166656390026 
0.037009632750 	0.629574821055 	0.166646113451 
0.185171483085 	0.370342966170 	0.138878612314 
0.148120743687 	0.407352598485 	0.138868335543 
0.185171482911 	0.481454076933 	0.166656389961 
0.148120743774 	0.518463709770 	0.166646113386 
0.185171482998 	0.592565188218 	0.194434167804 
0.148120743861 	0.629574821055 	0.194423891229 
0.296282594196 	0.370342966170 	0.166656390091 
0.259231854798 	0.407352598485 	0.166646113321 
0.296282594022 	0.481454076933 	0.194434167739 
0.259231854885 	0.518463709770 	0.194423891164 
0.296282594109 	0.592565188218 	0.222211945582 
0.259231854972 	0.629574821055 	0.222201669007 
0.074060371974 	0.703676299503 	0.194434167869 
0.037009632576 	0.740685931818 	0.194423891099 
0.074060371800 	0.814787410267 	0.222211945517 
0.037009632663 	0.851797043103 	0.222201668941 
0.074060371887 	0.925898521552 	0.249989723360 
0.037009632750 	0.962908154388 	0.249979446784 
0.185171483085 	0.703676299503 	0.222211945647 
0.148120743687 	0.740685931818 	0.222201668876 
0.185171482911 	0.814787410267 	0.249989723295 
0.148120743774 	0.851797043103 	0.249979446719 
0.185171482998 	0.925898521552 	0.277767501137 
0.148120743861 	0.962908154388 	0.277757224562 
0.296282594196 	0.703676299503 	0.249989723425 
0.259231854798 	0.740685931818 	0.249979446654 
0.296282594022 	0.814787410267 	0.277767501072 
0.259231854885 	0.851797043103 	0.277757224497 
0.296282594109 	0.925898521552 	0.305545278915 
0.259231854972 	0.962908154388 	0.305535002340 
0.407393705307 	0.037009632836 	0.111100834536 
0.370342965909 	0.074019265152 	0.111090557765 
0.407393705133 	0.148120743600 	0.138878612183 
0.370342965996 	0.185130376437 	0.138868335608 
0.407393705220 	0.259231854885 	0.166656390026 
0.370342966083 	0.296241487721 	0.166646113451 
0.518504816418 	0.037009632836 	0.138878612314 
0.481454077020 	0.074019265152 	0.138868335543 
0.518504816245 	0.148120743600 	0.166656389961 
0.481454077107 	0.185130376437 	0.166646113386 
0.518504816331 	0.259231854885 	0.194434167804 
0.481454077194 	0.296241487721 	0.194423891229 
0.629615927529 	0.037009632836 	0.166656390091 
0.592565188131 	0.074019265152 	0.166646113321 
0.629615927356 	0.148120743600 	0.194434167739 
0.592565188218 	0.185130376437 	0.194423891164 
0.629615927442 	0.259231854885 	0.222211945582 
0.592565188305 	0.296241487721 	0.222201669007 
0.407393705307 	0.370342966170 	0.194434167869 
0.370342965909 	0.407352598485 	0.194423891099 
0.407393705133 	0.481454076933 	0.222211945517 
0.370342965996 	0.518463709770 	0.222201668941 
0.407393705220 	0.592565188218 	0.249989723360 
0.370342966083 	0.629574821055 	0.249979446784 
0.518504816418 	0.370342966170 	0.222211945647 
0.481454077020 	0.407352598485 	0.222201668876 
0.518504816245 	0.481454076933 	0.249989723295 
0.481454077107 	0.518463709770 	0.249979446719 
0.518504816331 	0.592565188218 	0.277767501137 
0.481454077194 	0.629574821055 	0.277757224562 
0.629615927529 	0.370342966170 	0.249989723425 
0.592565188131 	0.407352598485 	0.249979446654 
0.629615927356 	0.481454076933 	0.277767501072 
0.592565188218 	0.518463709770 	0.277757224497 
0.629615927442 	0.592565188218 	0.305545278915 
0.592565188305 	0.629574821055 	0.305535002340 
0.407393705307 	0.703676299503 	0.277767501203 
0.370342965909 	0.740685931818 	0.277757224432 
0.407393705133 	0.814787410267 	0.305545278850 
0.370342965996 	0.851797043103 	0.305535002275 
0.407393705220 	0.925898521552 	0.333323056693 
0.370342966083 	0.962908154388 	0.333312780118 
0.518504816418 	0.703676299503 	0.305545278980 
0.481454077020 	0.740685931818 	0.305535002210 
0.518504816245 	0.814787410267 	0.333323056628 
0.481454077107 	0.851797043103 	0.333312780053 
0.518504816331 	0.925898521552 	0.361100834471 
0.481454077194 	0.962908154388 	0.361090557895 
0.629615927529 	0.703676299503 	0.333323056758 
0.592565188131 	0.740685931818 	0.333312779987 
0.629615927356 	0.814787410267 	0.361100834406 
0.592565188218 	0.851797043103 	0.361090557830 
0.629615927442 	0.925898521552 	0.388878612249 
0.592565188305 	0.962908154388 	0.388868335673 
0.740727038640 	0.037009632836 	0.194434167869 
0.703676299243 	0.074019265152 	0.194423891099 
0.740727038467 	0.148120743600 	0.222211945517 
0.703676299329 	0.185130376437 	0.222201668941 
0.740727038554 	0.259231854885 	0.249989723360 
0.703676299416 	0.296241487721 	0.249979446784 
0.851838149752 	0.037009632836 	0.222211945647 
0.814787410354 	0.074019265152 	0.222201668876 
0.851838149578 	0.148120743600 	0.249989723295 
0.814787410440 	0.185130376437 	0.249979446719 
0.851838149665 	0.259231854885 	0.277767501137 
0.814787410527 	0.296241487721 	0.277757224562 
0.962949260863 	0.037009632836 	0.249989723425 
0.925898521465 	0.074019265152 	0.249979446654 
0.962949260689 	0.148120743600 	0.277767501072 
0.925898521552 	0.185130376437 	0.277757224497 
0.962949260776 	0.259231854885 	0.305545278915 
0.925898521638 	0.296241487721 	0.305535002340 
0.740727038640 	0.370342966170 	0.277767501203 
0.703676299243 	0.407352598485 	0.277757224432 
0.740727038467 	0.481454076933 	0.305545278850 
0.703676299329 	0.518463709770 	0.305535002275 
0.740727038554 	0.592565188218 	0.333323056693 
0.703676299416 	0.629574821055 	0.333312780118 
0.851838149752 	0.370342966170 	0.305545278980 
0.814787410354 	0.407352598485 	0.305535002210 
0.851838149578 	0.481454076933 	0.333323056628 
0.814787410440 	0.518463709770 	0.333312780053 
0.851838149665 	0.592565188218 	0.361100834471 
0.814787410527 	0.629574821055 	0.361090557895 
0.962949260863 	0.370342966170 	0.333323056758 
0.925898521465 	0.407352598485 	0.333312779987 
0.962949260689 	0.481454076933 	0.361100834406 
0.925898521552 	0.518463709770 	0.361090557830 
0.962949260776 	0.592565188218 	0.388878612249 
0.925898521638 	0.629574821055 	0.388868335673 
0.740727038640 	0.703676299503 	0.361100834536 
0.703676299243 	0.740685931818 	0.361090557765 
0.740727038467 	0.814787410267 	0.388878612183 
0.703676299329 	0.851797043103 	0.388868335608 
0.740727038554 	0.925898521552 	0.416656390026 
0.703676299416 	0.962908154388 	0.416646113451 
0.851838149752 	0.703676299503 	0.388878612314 
0.814787410354 	0.740685931818 	0.388868335543 
0.851838149578 	0.814787410267 	0.416656389961 
0.814787410440 	0.851797043103 	0.416646113386 
0.851838149665 	0.925898521552 	0.444434167804 
0.814787410527 	0.962908154388 	0.444423891229 
0.962949260863 	0.703676299503 	0.416656390091 
0.925898521465 	0.740685931818 	0.416646113321 
0.962949260689 	0.814787410267 	0.444434167739 
0.925898521552 	0.851797043103 	0.444423891164 
0.962949260776 	0.925898521552 	0.472211945582 
0.925898521638 	0.962908154388 	0.472201669007 
