POSCAR Generated by VLAtoms at MaterialsSquare.com
1.0
2.77460 0.00000 0.00000
-1.38730 2.40287 0.00000
0.00000 0.00000 18.79640
Pt 
4 
Direct
0.00000 0.00000 0.00000 
0.00000 0.00000 0.36158 
0.66667 0.33333 0.24105 
0.33333 0.66667 0.12053