Si O
 1.0000000000000000
    40.2719999999999985    0.0000000000000000    0.0000000000000000
     0.0000000000000000   38.7096000000000018    0.0000000000000000
     0.0000000000000000    0.0000000000000000   50.0000000000000000
Si O
 290 144
Cartesian
9.886252464000 	34.660614549600 	25.000000000000 
34.514231616000 	5.590633980000 	25.000000000000 
21.775996656000 	1.292819349840 	25.000000000000 
16.509989664000 	34.691233843200 	25.000000000000 
16.581190560000 	30.675228972000 	25.000000000000 
3.028349692800 	7.465146360000 	25.000000000000 
18.691443360000 	19.123974655200 	25.000000000000 
11.924257296000 	7.445443173600 	25.000000000000 
31.767802032000 	14.908808892000 	25.000000000000 
25.249013664000 	3.983721064800 	25.000000000000 
27.790660128000 	11.727034610400 	25.000000000000 
20.688169392000 	14.965479746400 	25.000000000000 
29.209201056000 	36.520649539200 	25.000000000000 
17.717344224000 	13.059999686400 	25.000000000000 
24.881934384000 	34.875723796800 	25.000000000000 
37.023056400000 	13.288347616800 	25.000000000000 
15.754003680000 	9.454084317600 	25.000000000000 
35.887547088000 	17.204830106400 	25.000000000000 
0.499751356800 	38.361755534400 	25.000000000000 
27.576614448000 	7.497546295200 	25.000000000000 
0.251151495360 	4.166778763200 	25.000000000000 
14.349316320000 	19.631960736000 	25.000000000000 
14.211747168000 	0.223772068584 	25.000000000000 
3.676648348800 	24.932892069600 	25.000000000000 
7.574599392000 	0.303241329000 	25.000000000000 
34.655264160000 	30.978325140000 	25.000000000000 
22.295143008000 	24.838247097600 	25.000000000000 
10.994054640000 	17.097372256800 	25.000000000000 
24.529473840000 	28.470717252000 	25.000000000000 
5.274061392000 	19.231897020000 	25.000000000000 
0.245217013440 	26.917726809600 	25.000000000000 
7.854328704000 	22.623283785600 	25.000000000000 
18.325934688000 	30.876402763200 	25.000000000000 
17.911334448000 	25.475445823200 	25.000000000000 
17.450260320000 	5.472956796000 	25.000000000000 
39.830216160000 	1.486289930640 	25.000000000000 
39.849788352000 	5.467847128800 	25.000000000000 
7.150454688000 	12.056917821600 	25.000000000000 
36.513655872000 	11.409538471200 	25.000000000000 
29.741838528000 	3.517312965360 	25.000000000000 
39.970443264000 	36.556378500000 	25.000000000000 
26.482102032000 	13.181818797600 	25.000000000000 
36.449905296000 	7.532539773600 	25.000000000000 
39.818255376000 	9.478742332800 	25.000000000000 
26.212964256000 	1.609460006880 	25.000000000000 
29.659925280000 	11.322790257600 	25.000000000000 
33.268578384000 	17.282404144800 	25.000000000000 
36.485103024000 	3.637653369840 	25.000000000000 
23.708045856000 	20.575778203200 	25.000000000000 
29.666771520000 	7.325675671200 	25.000000000000 
19.737468288000 	5.427008500800 	25.000000000000 
26.408082096000 	5.689266040800 	25.000000000000 
19.730783136000 	13.449069876000 	25.000000000000 
22.996117440000 	7.393185213600 	25.000000000000 
33.186342960000 	1.597049709120 	25.000000000000 
27.758482800000 	23.006276568000 	25.000000000000 
23.008037952000 	11.494854429600 	25.000000000000 
19.591482288000 	1.592435524800 	25.000000000000 
33.024328704000 	9.336678100800 	25.000000000000 
29.714493840000 	15.374059574400 	25.000000000000 
2.950995235200 	3.651623664480 	25.000000000000 
22.909532640000 	3.685239081120 	25.000000000000 
19.733199456000 	9.375116733600 	25.000000000000 
16.710665040000 	11.553538183200 	25.000000000000 
16.496619360000 	7.338875644800 	25.000000000000 
36.538946688000 	38.501806867200 	25.000000000000 
36.674502240000 	15.114511706400 	25.000000000000 
26.477511024000 	17.130662512800 	25.000000000000 
39.978054672000 	13.259934770400 	25.000000000000 
16.356351984000 	3.634916601120 	25.000000000000 
33.261530784000 	21.055312728000 	25.000000000000 
33.095569872000 	13.216928404800 	25.000000000000 
30.029300064000 	38.636206598400 	25.000000000000 
13.042812096000 	1.767135820560 	25.000000000000 
9.979361328000 	15.436730416800 	25.000000000000 
23.062968960000 	38.457484375200 	25.000000000000 
6.440137152000 	1.738993941360 	25.000000000000 
13.068384816000 	5.677575741600 	25.000000000000 
29.820328656000 	19.232400244800 	25.000000000000 
2.979491702400 	11.340364416000 	25.000000000000 
33.364546560000 	36.394378824000 	25.000000000000 
9.676797792000 	7.646578255200 	25.000000000000 
26.423304912000 	9.391374765600 	25.000000000000 
26.571465600000 	32.622476690400 	25.000000000000 
6.396200400000 	13.328257214400 	25.000000000000 
33.364627104000 	32.528915587200 	25.000000000000 
3.060635755200 	34.477750399200 	25.000000000000 
3.067602811200 	23.156198848800 	25.000000000000 
29.877152448000 	34.554163149600 	25.000000000000 
16.385388096000 	15.291182320800 	25.000000000000 
3.107351275200 	7.488720506400 	25.000000000000 
3.021805492800 	30.683938632000 	25.000000000000 
2.995890460800 	38.445290851200 	25.000000000000 
16.283580480000 	19.153742337600 	25.000000000000 
29.877998160000 	30.710261160000 	25.000000000000 
2.941599777600 	15.223014715200 	25.000000000000 
13.000284864000 	21.054461116800 	25.000000000000 
3.120717552000 	26.919584870400 	25.000000000000 
13.215740064000 	9.484084257600 	25.000000000000 
23.090112288000 	19.166942311200 	25.000000000000 
9.645144000000 	3.821136873840 	25.000000000000 
6.370144416000 	28.841903606400 	25.000000000000 
6.487859472000 	17.045346554400 	25.000000000000 
6.289237968000 	5.562027585600 	25.000000000000 
26.580003264000 	36.535204348800 	25.000000000000 
19.619672688000 	17.252017108800 	25.000000000000 
36.630605760000 	19.265651791200 	25.000000000000 
32.940361584000 	5.451589096800 	25.000000000000 
26.664292560000 	24.808053609600 	25.000000000000 
23.330254224000 	26.883313975200 	25.000000000000 
16.137715296000 	38.568387379200 	25.000000000000 
29.811952080000 	22.997489488800 	25.000000000000 
39.994284288000 	21.119957760000 	25.000000000000 
13.257260496000 	13.252463817600 	25.000000000000 
19.710888768000 	21.168847984800 	25.000000000000 
39.949340736000 	17.241449388000 	25.000000000000 
6.356532480000 	9.451103678400 	25.000000000000 
9.836637360000 	11.615318704800 	25.000000000000 
36.599837952000 	34.594924358400 	25.000000000000 
39.954012288000 	28.707387746400 	25.000000000000 
26.473926816000 	28.696820025600 	25.000000000000 
9.708693216000 	26.894307501600 	25.000000000000 
19.781566128000 	32.807585997600 	25.000000000000 
23.123981040000 	15.247788859200 	25.000000000000 
12.981598656000 	17.161088258400 	25.000000000000 
19.701666480000 	24.865576075200 	25.000000000000 
19.680845856000 	36.682107280800 	25.000000000000 
38.759142048000 	11.328674116800 	25.000000000000 
33.143493552000 	24.894066340800 	25.000000000000 
13.003224720000 	28.855993900800 	25.000000000000 
36.550504752000 	23.055515179200 	25.000000000000 
40.031253984000 	32.572425177600 	25.000000000000 
6.516372048000 	25.018362866400 	25.000000000000 
36.559767312000 	30.656222558400 	25.000000000000 
13.100803776000 	32.892708408000 	25.000000000000 
25.234918464000 	3.650454634560 	25.000000000000 
29.833618416000 	26.877081729600 	25.000000000000 
40.086507168000 	25.044530556000 	25.000000000000 
16.357076880000 	23.018779768800 	25.000000000000 
6.400670592000 	21.181660862400 	25.000000000000 
23.262718080000 	34.701491887200 	25.000000000000 
35.300864592000 	9.450910130400 	25.000000000000 
26.657406048000 	21.053493376800 	25.000000000000 
35.550832896000 	17.212765574400 	25.000000000000 
16.410397008000 	26.854126936800 	25.000000000000 
38.651213088000 	7.515739807200 	25.000000000000 
32.023931952000 	15.336317714400 	25.000000000000 
38.728253424000 	3.390194509920 	25.000000000000 
15.571370160000 	9.414136010400 	25.000000000000 
35.299535616000 	5.541472788000 	25.000000000000 
21.997774560000 	9.433916616000 	25.000000000000 
28.662307296000 	13.272670228800 	25.000000000000 
18.681294816000 	7.397094883200 	25.000000000000 
1.737237427200 	1.650743795280 	25.000000000000 
21.862702272000 	1.662294739920 	25.000000000000 
36.601811280000 	26.893378471200 	25.000000000000 
9.648204672000 	22.939773475200 	25.000000000000 
19.884622176000 	28.786432749600 	25.000000000000 
9.802406160000 	30.769409428800 	25.000000000000 
9.708652944000 	38.493677851200 	25.000000000000 
3.178330675200 	19.140155268000 	25.000000000000 
28.464773136000 	1.797542211360 	25.000000000000 
1.765556697600 	9.422032768800 	25.000000000000 
13.047966912000 	24.905679220800 	25.000000000000 
1.766414491200 	5.536053444000 	25.000000000000 
28.601657664000 	5.459524564800 	25.000000000000 
9.795358560000 	19.186413240000 	25.000000000000 
23.195061120000 	30.892428537600 	25.000000000000 
38.774687040000 	38.411187693600 	25.000000000000 
6.397448832000 	32.628437968800 	25.000000000000 
32.162950896000 	19.150877827200 	25.000000000000 
23.210485296000 	22.800844720800 	25.000000000000 
18.659709024000 	3.521257473600 	25.000000000000 
31.850560992000 	11.291087095200 	25.000000000000 
28.703304192000 	9.308691060000 	25.000000000000 
11.914632288000 	7.546746196800 	25.000000000000 
25.268908032000 	11.335138620000 	25.000000000000 
21.869910960000 	5.552582443200 	25.000000000000 
12.955864848000 	36.604688080800 	25.000000000000 
25.408571328000 	15.164485800000 	25.000000000000 
31.862884224000 	3.457847277840 	25.000000000000 
33.211593504000 	28.754845716000 	25.000000000000 
31.901505072000 	7.459262500800 	25.000000000000 
35.330504784000 	13.294231476000 	25.000000000000 
9.794794752000 	34.581492127200 	25.000000000000 
35.449508544000 	1.732173309840 	25.000000000000 
25.299595296000 	38.460581143200 	25.000000000000 
32.285216688000 	38.405032867200 	25.000000000000 
28.870795440000 	36.554326891200 	25.000000000000 
6.328301808000 	36.602597762400 	25.000000000000 
18.882010464000 	11.380544980800 	25.000000000000 
8.669353440000 	13.573018015200 	25.000000000000 
38.876897376000 	15.177918031200 	25.000000000000 
16.198244112000 	30.644687097600 	25.000000000000 
25.225011552000 	7.462707655200 	25.000000000000 
21.914653152000 	13.352528133600 	25.000000000000 
1.813299153600 	36.384740133600 	25.000000000000 
18.600549456000 	19.213393831200 	25.000000000000 
28.633834992000 	17.270326749600 	25.000000000000 
16.507130352000 	34.803182006400 	25.000000000000 
32.173663248000 	34.564808289600 	25.000000000000 
11.868238944000 	3.746810570880 	25.000000000000 
18.601153536000 	15.228821155200 	25.000000000000 
15.206505840000 	5.597524288800 	25.000000000000 
25.426089648000 	19.082748931200 	25.000000000000 
5.116638144000 	11.393822373600 	25.000000000000 
5.162588496000 	3.635617244880 	25.000000000000 
18.460604256000 	38.554374504000 	25.000000000000 
35.488250208000 	36.559901073600 	25.000000000000 
28.774666176000 	32.617289604000 	25.000000000000 
8.623000368000 	9.573735691200 	25.000000000000 
12.103185792000 	11.433770680800 	25.000000000000 
15.434848080000 	13.275496029600 	25.000000000000 
22.037925744000 	24.910517920800 	25.000000000000 
38.850720576000 	34.574446980000 	25.000000000000 
1.857002328000 	13.249986403200 	25.000000000000 
15.256201488000 	17.146417320000 	25.000000000000 
2.007337704000 	21.183596342400 	25.000000000000 
1.997515363200 	32.583302575200 	25.000000000000 
21.992982192000 	32.742166773600 	25.000000000000 
5.197222416000 	15.191737358400 	25.000000000000 
25.558383168000 	30.717151468800 	25.000000000000 
11.891636976000 	26.961081561600 	25.000000000000 
35.387046672000 	21.083686864800 	25.000000000000 
22.239527376000 	28.850535847200 	25.000000000000 
25.532850720000 	34.583814703200 	25.000000000000 
5.453513424000 	19.079265067200 	25.000000000000 
28.710029616000 	28.861877760000 	25.000000000000 
38.811858096000 	22.984483063200 	25.000000000000 
8.712001488000 	17.164959218400 	25.000000000000 
21.972765648000 	36.615797736000 	25.000000000000 
8.619859152000 	1.756630035120 	25.000000000000 
5.226943152000 	34.539376082400 	25.000000000000 
12.080915376000 	15.162124514400 	25.000000000000 
8.597749824000 	28.814264952000 	25.000000000000 
38.862922992000 	19.187961624000 	25.000000000000 
8.491310928000 	5.719807915200 	25.000000000000 
5.255657088000 	7.498204358400 	25.000000000000 
5.199316560000 	38.624477589600 	25.000000000000 
5.169354192000 	30.739564327200 	25.000000000000 
15.262765824000 	1.818847975200 	25.000000000000 
5.269389840000 	26.964023491200 	25.000000000000 
1.877593401600 	28.821271389600 	25.000000000000 
32.090259936000 	22.944108950400 	25.000000000000 
1.985498198400 	25.068104702400 	25.000000000000 
25.596641568000 	26.737649750400 	25.000000000000 
5.286344352000 	23.108237654400 	25.000000000000 
35.508547296000 	32.646128256000 	25.000000000000 
28.858874928000 	21.099286833600 	25.000000000000 
8.666453856000 	24.963201686400 	25.000000000000 
18.581984064000 	30.760196544000 	25.000000000000 
18.604898832000 	23.041811980800 	25.000000000000 
35.414230272000 	24.917408229600 	25.000000000000 
38.891677200000 	30.664854799200 	25.000000000000 
18.666233088000 	26.892913956000 	25.000000000000 
11.956555440000 	38.623006624800 	25.000000000000 
1.900407489600 	17.193333355200 	25.000000000000 
12.075156480000 	19.162297159200 	25.000000000000 
11.882132784000 	22.969966963200 	25.000000000000 
28.827301680000 	24.908040506400 	25.000000000000 
15.166072752000 	21.038280504000 	25.000000000000 
25.494552048000 	22.964121813600 	25.000000000000 
21.847962720000 	17.243694544800 	25.000000000000 
32.114463408000 	30.724622421600 	25.000000000000 
12.042334800000 	30.880854367200 	25.000000000000 
18.757167264000 	34.819556167200 	25.000000000000 
21.832015008000 	20.851197007200 	25.000000000000 
32.022441888000 	26.825172156000 	25.000000000000 
38.821563648000 	26.822191516800 	25.000000000000 
15.153991152000 	28.712149027200 	25.000000000000 
15.203042448000 	32.770347362400 	25.000000000000 
15.174811776000 	36.664687960800 	25.000000000000 
15.269007984000 	24.932117877600 	25.000000000000 
27.668958144000 	30.663770930400 	25.000000000000 
8.653325184000 	32.694747513600 	25.000000000000 
8.485954752000 	21.010951526400 	25.000000000000 
35.423694192000 	28.769981169600 	25.000000000000 
8.660332512000 	36.568378476000 	25.000000000000 
12.003512592000 	34.687479012000 	25.000000000000 
20.867983872000 	11.518583414400 	25.000000000000 
27.907448928000 	3.558170948160 	25.000000000000 
0.417519960000 	35.110884616800 	25.000000000000 
37.387598544000 	1.978064430960 	25.000000000000 
30.043596624000 	0.215697633120 	25.000000000000 
1.190387966400 	18.448027620000 	25.000000000000 
27.493895760000 	34.193776773600 	25.000000000000 
38.463263664000 	21.023996661600 	25.000000000000 
30.821530848000 	21.334331524800 	25.000000000000 
21.036643008000 	19.029484521600 	25.000000000000 
23.340281952000 	31.027486332000 	25.000000000000 
19.989007200000 	28.986019447200 	25.000000000000 
9.769181760000 	8.051519380800 	25.000000000000 
13.841889120000 	9.423310185600 	25.000000000000 
7.284640992000 	19.522296439200 	25.000000000000 
33.623898240000 	5.700182148000 	25.000000000000 
6.056506080000 	36.629113838400 	25.000000000000 
9.604469280000 	12.006208245600 	25.000000000000 
38.259447072000 	25.125201362400 	25.000000000000 
33.827875920000 	36.783332884800 	25.000000000000 
23.336979648000 	35.103491083200 	25.000000000000 
34.279083408000 	27.397880688000 	25.000000000000 
12.598249488000 	25.234285015200 	25.000000000000 
13.221740592000 	13.238102556000 	25.000000000000 
1.086510369600 	15.318395169600 	25.000000000000 
38.608202592000 	11.548776902400 	25.000000000000 
26.488384464000 	20.489146118400 	25.000000000000 
23.236138560000 	22.848496238400 	25.000000000000 
1.859930102400 	1.793109962160 	25.000000000000 
28.735441248000 	13.191767164800 	25.000000000000 
12.519235824000 	1.243793641440 	25.000000000000 
35.396389776000 	9.432058555200 	25.000000000000 
1.543629787200 	5.706066007200 	25.000000000000 
16.489088496000 	35.108523331200 	25.000000000000 
38.733287424000 	3.756669906000 	25.000000000000 
35.100954384000 	5.641420975200 	25.000000000000 
38.662891968000 	7.734371628000 	25.000000000000 
3.088701312000 	5.473692278400 	25.000000000000 
18.593461584000 	7.441843180800 	25.000000000000 
25.325127744000 	3.617415990960 	25.000000000000 
31.921359168000 	15.214730860800 	25.000000000000 
1.708144934400 	9.463645588800 	25.000000000000 
38.703445872000 	38.638567884000 	25.000000000000 
18.585970992000 	3.672534590400 	25.000000000000 
28.659407712000 	1.475973822240 	25.000000000000 
15.227487552000 	9.406665057600 	25.000000000000 
22.078761552000 	9.375039314400 	25.000000000000 
22.010138064000 	5.625085524000 	25.000000000000 
28.718849184000 	5.605962981600 	25.000000000000 
22.089272544000 	1.626623843520 	25.000000000000 
31.843674480000 	11.303783844000 	25.000000000000 
28.678174464000 	9.159426842400 	25.000000000000 
25.197143328000 	11.262364572000 	25.000000000000 
20.907329616000 	3.632272735440 	25.000000000000 
32.119457136000 	19.206077716800 	25.000000000000 
25.176524064000 	14.998228068000 	25.000000000000 
8.705799600000 	13.123444720800 	25.000000000000 
18.648835584000 	19.168722952800 	25.000000000000 
31.845003456000 	3.480488522880 	25.000000000000 
35.279117712000 	13.327676570400 	25.000000000000 
32.205880848000 	38.174207522400 	25.000000000000 
25.353922224000 	38.439136024800 	25.000000000000 
31.927842960000 	7.338759516000 	25.000000000000 
21.934587792000 	13.282425048000 	25.000000000000 
11.753785920000 	7.571597760000 	25.000000000000 
28.747965840000 	36.491385081600 	25.000000000000 
32.167823808000 	34.443531112800 	25.000000000000 
27.471786432000 	15.118808472000 	25.000000000000 
17.519326800000 	17.152610856000 	25.000000000000 
1.815594657600 	36.703668528000 	25.000000000000 
35.155160496000 	1.915800039360 	25.000000000000 
18.482552496000 	11.284854849600 	25.000000000000 
35.462838576000 	17.174288232000 	25.000000000000 
15.277867824000 	5.690311200000 	25.000000000000 
25.329759024000 	7.503855960000 	25.000000000000 
27.659252592000 	3.559247075040 	25.000000000000 
21.818000352000 	28.564626741600 	25.000000000000 
18.596320896000 	15.039608630400 	25.000000000000 
28.770115440000 	32.600838024000 	25.000000000000 
0.619685400000 	11.467293194400 	25.000000000000 
27.549954384000 	11.183900212800 	25.000000000000 
5.049383904000 	3.707717745840 	25.000000000000 
5.111080608000 	11.152545436800 	25.000000000000 
20.835645456000 	11.390144961600 	25.000000000000 
25.540864848000 	19.314116210400 	25.000000000000 
15.304648704000 	13.361044245600 	25.000000000000 
37.473096000000 	1.858335638160 	25.000000000000 
12.147887712000 	11.573860723200 	25.000000000000 
38.892321552000 	15.223092134400 	25.000000000000 
22.141303968000 	24.605912078400 	25.000000000000 
35.254511520000 	36.740558776800 	25.000000000000 
15.229783056000 	17.200959146400 	25.000000000000 
11.880924624000 	3.900069619200 	25.000000000000 
1.871484139200 	13.318424976000 	25.000000000000 
25.207815408000 	30.654248368800 	25.000000000000 
8.650022880000 	9.381774784800 	25.000000000000 
12.013661136000 	26.637972530400 	25.000000000000 
18.530315088000 	38.449742455200 	25.000000000000 
28.818039120000 	17.217642984000 	25.000000000000 
37.635029712000 	36.650094441600 	25.000000000000 
1.964472187200 	21.016835385600 	25.000000000000 
38.738643600000 	34.648962960000 	25.000000000000 
8.723398464000 	17.075230365600 	25.000000000000 
12.091547184000 	14.965944261600 	25.000000000000 
5.333059872000 	15.130460061600 	25.000000000000 
21.948964896000 	32.440773828000 	25.000000000000 
1.937006683200 	32.688824944800 	25.000000000000 
5.299996560000 	34.785646557600 	25.000000000000 
32.153768880000 	22.993037884800 	25.000000000000 
30.897644928000 	1.351565038800 	25.000000000000 
5.242327056000 	38.447845684800 	25.000000000000 
5.204310288000 	7.440449635200 	25.000000000000 
35.393772096000 	21.119841631200 	25.000000000000 
25.207130784000 	34.555324437600 	25.000000000000 
20.909866752000 	34.580021162400 	25.000000000000 
25.520688576000 	26.711211093600 	25.000000000000 
22.111865136000 	36.583862316000 	25.000000000000 
28.604557248000 	21.096615871200 	25.000000000000 
38.757168720000 	19.061729618400 	25.000000000000 
8.607978912000 	1.755573263040 	25.000000000000 
5.277766416000 	23.060237750400 	25.000000000000 
8.438474064000 	5.608904911200 	25.000000000000 
1.882969713600 	28.922380864800 	25.000000000000 
5.217841680000 	30.814002888000 	25.000000000000 
37.470558864000 	5.821730292000 	25.000000000000 
8.493686976000 	28.833426204000 	25.000000000000 
11.027399856000 	16.991385372000 	25.000000000000 
38.923129632000 	23.021953956000 	25.000000000000 
24.153051456000 	28.527194558400 	25.000000000000 
2.074757059200 	25.019446735200 	25.000000000000 
18.757771344000 	22.957386343200 	25.000000000000 
18.491734512000 	26.558463012000 	25.000000000000 
28.804346640000 	28.588587984000 	25.000000000000 
28.700887872000 	24.889034092800 	25.000000000000 
18.769933488000 	30.414790783200 	25.000000000000 
15.274847424000 	1.799075111520 	25.000000000000 
8.615308416000 	24.998853228000 	25.000000000000 
38.894657328000 	27.079726485600 	25.000000000000 
5.261979792000 	26.915249395200 	25.000000000000 
22.034905344000 	17.049488481600 	25.000000000000 
12.079747488000 	23.109166684800 	25.000000000000 
38.880642672000 	30.880815657600 	25.000000000000 
12.150908112000 	19.128077872800 	25.000000000000 
35.492962032000 	32.668270147200 	25.000000000000 
32.090944560000 	30.684016051200 	25.000000000000 
35.604676560000 	24.997072586400 	25.000000000000 
15.295063968000 	21.081596546400 	25.000000000000 
32.123645424000 	26.879597853600 	25.000000000000 
11.830826256000 	30.819693199200 	25.000000000000 
11.868923568000 	-0.008650279474 	25.000000000000 
25.213091040000 	22.923050928000 	25.000000000000 
22.043040288000 	21.050744995200 	25.000000000000 
27.563445504000 	34.542898656000 	25.000000000000 
34.075025184000 	11.227254964800 	25.000000000000 
15.140741664000 	32.645005677600 	25.000000000000 

