POSCAR Generated by VLAtoms at MaterialsSquare.com
1.0
25.94247 0.00000 0.00000
0.00000 11.23173 0.00000
0.00000 0.00000 15.60337
Nd Ga O 
32 32 96 
Direct
0.78634 0.22410 0.37500 
0.58097 0.27590 0.12500 
0.68642 0.47410 0.37500 
0.68089 0.02590 0.12500 
0.78634 0.22410 0.87500 
0.58097 0.27590 0.62500 
0.68642 0.47410 0.87500 
0.68089 0.02590 0.62500 
0.78634 0.72410 0.37500 
0.58097 0.77590 0.12500 
0.68642 0.97410 0.37500 
0.68089 0.52590 0.12500 
0.78634 0.72410 0.87500 
0.58097 0.77590 0.62500 
0.68642 0.97410 0.87500 
0.68089 0.52590 0.62500 
0.99724 0.22410 0.37500 
0.79186 0.27590 0.12500 
0.89731 0.47410 0.37500 
0.89179 0.02590 0.12500 
0.99724 0.22410 0.87500 
0.79186 0.27590 0.62500 
0.89731 0.47410 0.87500 
0.89179 0.02590 0.62500 
0.99724 0.72410 0.37500 
0.79186 0.77590 0.12500 
0.89731 0.97410 0.37500 
0.89179 0.52590 0.12500 
0.99724 0.72410 0.87500 
0.79186 0.77590 0.62500 
0.89731 0.97410 0.87500 
0.89179 0.52590 0.62500 
0.68365 0.25000 0.25000 
0.68365 0.25000 0.00000 
0.57820 -0.00000 0.25000 
0.57820 0.00000 0.00000 
0.68365 0.25000 0.75000 
0.68365 0.25000 0.50000 
0.57820 -0.00000 0.75000 
0.57820 -0.00000 0.50000 
0.68365 0.75000 0.25000 
0.68365 0.75000 0.00000 
0.57820 0.50000 0.25000 
0.57820 0.50000 0.00000 
0.68365 0.75000 0.75000 
0.68365 0.75000 0.50000 
0.57820 0.50000 0.75000 
0.57820 0.50000 0.50000 
0.89455 0.25000 0.25000 
0.89455 0.25000 0.00000 
0.78910 -0.00000 0.25000 
0.78910 0.00000 0.00000 
0.89455 0.25000 0.75000 
0.89455 0.25000 0.50000 
0.78910 -0.00000 0.75000 
0.78910 -0.00000 0.50000 
0.89455 0.75000 0.25000 
0.89455 0.75000 0.00000 
0.78910 0.50000 0.25000 
0.78910 0.50000 0.00000 
0.89455 0.75000 0.75000 
0.89455 0.75000 0.50000 
0.78910 0.50000 0.75000 
0.78910 0.50000 0.50000 
0.72756 0.10353 0.47662 
0.63974 0.39647 0.22662 
0.74519 0.35353 0.47662 
0.62212 0.14647 0.22662 
0.72756 0.10353 0.27338 
0.63974 0.39647 0.02338 
0.74519 0.35353 0.27338 
0.62212 0.14647 0.02338 
0.77066 0.48862 0.12500 
0.59664 0.01138 0.37500 
0.70209 0.23862 0.12500 
0.66522 0.26138 0.37500 
0.72756 0.10353 0.97662 
0.63974 0.39647 0.72662 
0.74519 0.35353 0.97662 
0.62212 0.14647 0.72662 
0.72756 0.10353 0.77338 
0.63974 0.39647 0.52338 
0.74519 0.35353 0.77338 
0.62212 0.14647 0.52338 
0.77066 0.48862 0.62500 
0.59664 0.01138 0.87500 
0.70209 0.23862 0.62500 
0.66522 0.26138 0.87500 
0.72756 0.60353 0.47662 
0.63974 0.89647 0.22662 
0.74519 0.85353 0.47662 
0.62212 0.64647 0.22662 
0.72756 0.60353 0.27338 
0.63974 0.89647 0.02338 
0.74519 0.85353 0.27338 
0.62212 0.64647 0.02338 
0.77066 0.98862 0.12500 
0.59664 0.51138 0.37500 
0.70209 0.73862 0.12500 
0.66522 0.76138 0.37500 
0.72756 0.60353 0.97662 
0.63974 0.89647 0.72662 
0.74519 0.85353 0.97662 
0.62212 0.64647 0.72662 
0.72756 0.60353 0.77338 
0.63974 0.89647 0.52338 
0.74519 0.85353 0.77338 
0.62212 0.64647 0.52338 
0.77066 0.98862 0.62500 
0.59664 0.51138 0.87500 
0.70209 0.73862 0.62500 
0.66522 0.76138 0.87500 
0.93846 0.10353 0.47662 
0.85064 0.39647 0.22662 
0.95609 0.35353 0.47662 
0.83301 0.14647 0.22662 
0.93846 0.10353 0.27338 
0.85064 0.39647 0.02338 
0.95609 0.35353 0.27338 
0.83301 0.14647 0.02338 
0.98156 0.48862 0.12500 
0.80754 0.01138 0.37500 
0.91299 0.23862 0.12500 
0.87611 0.26138 0.37500 
0.93846 0.10353 0.97662 
0.85064 0.39647 0.72662 
0.95609 0.35353 0.97662 
0.83301 0.14647 0.72662 
0.93846 0.10353 0.77338 
0.85064 0.39647 0.52338 
0.95609 0.35353 0.77338 
0.83301 0.14647 0.52338 
0.98156 0.48862 0.62500 
0.80754 0.01138 0.87500 
0.91299 0.23862 0.62500 
0.87611 0.26138 0.87500 
0.93846 0.60353 0.47662 
0.85064 0.89647 0.22662 
0.95609 0.85353 0.47662 
0.83301 0.64647 0.22662 
0.93846 0.60353 0.27338 
0.85064 0.89647 0.02338 
0.95609 0.85353 0.27338 
0.83301 0.64647 0.02338 
0.98156 0.98862 0.12500 
0.80754 0.51138 0.37500 
0.91299 0.73862 0.12500 
0.87611 0.76138 0.37500 
0.93846 0.60353 0.97662 
0.85064 0.89647 0.72662 
0.95609 0.85353 0.97662 
0.83301 0.64647 0.72662 
0.93846 0.60353 0.77338 
0.85064 0.89647 0.52338 
0.95609 0.85353 0.77338 
0.83301 0.64647 0.52338 
0.98156 0.98862 0.62500 
0.80754 0.51138 0.87500 
0.91299 0.73862 0.62500 
0.87611 0.76138 0.87500