POSCAR Generated by VLAtoms at MaterialsSquare.com
1.0
17.04048 0.00000 0.00000
0.00000 18.86411 0.00000
-4.40150 0.00000 17.25810
Mn Cu O 
54 54 108 
Direct
0.00000 0.00000 0.00000 
0.16667 0.07832 0.00000 
0.00000 -0.00000 0.33333 
0.16667 0.07832 0.33333 
0.00000 -0.00000 0.66667 
0.16667 0.07832 0.66667 
-0.00000 0.15663 0.00000 
0.16667 0.23495 0.00000 
0.00000 0.15663 0.33333 
0.16667 0.23495 0.33333 
0.00000 0.15663 0.66667 
0.16667 0.23495 0.66667 
-0.00000 0.31326 0.00000 
0.16667 0.39158 0.00000 
0.00000 0.31326 0.33333 
0.16667 0.39158 0.33333 
0.00000 0.31326 0.66667 
0.16667 0.39158 0.66667 
0.33333 0.00000 0.00000 
0.50000 0.07832 0.00000 
0.33333 -0.00000 0.33333 
0.50000 0.07832 0.33333 
0.33333 -0.00000 0.66667 
0.50000 0.07832 0.66667 
0.33333 0.15663 0.00000 
0.50000 0.23495 0.00000 
0.33333 0.15663 0.33333 
0.50000 0.23495 0.33333 
0.33333 0.15663 0.66667 
0.50000 0.23495 0.66667 
0.33333 0.31326 0.00000 
0.50000 0.39158 0.00000 
0.33333 0.31326 0.33333 
0.50000 0.39158 0.33333 
0.33333 0.31326 0.66667 
0.50000 0.39158 0.66667 
0.66667 0.00000 0.00000 
0.83333 0.07832 0.00000 
0.66667 -0.00000 0.33333 
0.83333 0.07832 0.33333 
0.66667 -0.00000 0.66667 
0.83333 0.07832 0.66667 
0.66667 0.15663 0.00000 
0.83333 0.23495 0.00000 
0.66667 0.15663 0.33333 
0.83333 0.23495 0.33333 
0.66667 0.15663 0.66667 
0.83333 0.23495 0.66667 
0.66667 0.31326 0.00000 
0.83333 0.39158 0.00000 
0.66667 0.31326 0.33333 
0.83333 0.39158 0.33333 
0.66667 0.31326 0.66667 
0.83333 0.39158 0.66667 
0.16667 -0.00000 0.16667 
0.00000 0.07832 0.16667 
0.16667 -0.00000 0.50000 
0.00000 0.07832 0.50000 
0.16667 -0.00000 0.83333 
-0.00000 0.07832 0.83333 
0.16667 0.15663 0.16667 
0.00000 0.23495 0.16667 
0.16667 0.15663 0.50000 
0.00000 0.23495 0.50000 
0.16667 0.15663 0.83333 
-0.00000 0.23495 0.83333 
0.16667 0.31326 0.16667 
0.00000 0.39158 0.16667 
0.16667 0.31326 0.50000 
0.00000 0.39158 0.50000 
0.16667 0.31326 0.83333 
-0.00000 0.39158 0.83333 
0.50000 -0.00000 0.16667 
0.33333 0.07832 0.16667 
0.50000 -0.00000 0.50000 
0.33333 0.07832 0.50000 
0.50000 -0.00000 0.83333 
0.33333 0.07832 0.83333 
0.50000 0.15663 0.16667 
0.33333 0.23495 0.16667 
0.50000 0.15663 0.50000 
0.33333 0.23495 0.50000 
0.50000 0.15663 0.83333 
0.33333 0.23495 0.83333 
0.50000 0.31326 0.16667 
0.33333 0.39158 0.16667 
0.50000 0.31326 0.50000 
0.33333 0.39158 0.50000 
0.50000 0.31326 0.83333 
0.33333 0.39158 0.83333 
0.83333 -0.00000 0.16667 
0.66667 0.07832 0.16667 
0.83333 -0.00000 0.50000 
0.66667 0.07832 0.50000 
0.83333 -0.00000 0.83333 
0.66667 0.07832 0.83333 
0.83333 0.15663 0.16667 
0.66667 0.23495 0.16667 
0.83333 0.15663 0.50000 
0.66667 0.23495 0.50000 
0.83333 0.15663 0.83333 
0.66667 0.23495 0.83333 
0.83333 0.31326 0.16667 
0.66667 0.39158 0.16667 
0.83333 0.31326 0.50000 
0.66667 0.39158 0.50000 
0.83333 0.31326 0.83333 
0.66667 0.39158 0.83333 
0.19822 -0.00000 0.27311 
0.30178 0.07832 0.06022 
0.03155 0.07832 0.27311 
0.13511 -0.00000 0.06022 
0.19822 -0.00000 0.60644 
0.30178 0.07832 0.39356 
0.03155 0.07832 0.60644 
0.13511 -0.00000 0.39356 
0.19822 -0.00000 0.93978 
0.30178 0.07832 0.72689 
0.03155 0.07832 0.93978 
0.13511 -0.00000 0.72689 
0.19822 0.15663 0.27311 
0.30178 0.23495 0.06022 
0.03155 0.23495 0.27311 
0.13511 0.15663 0.06022 
0.19822 0.15663 0.60644 
0.30178 0.23495 0.39356 
0.03155 0.23495 0.60644 
0.13511 0.15663 0.39356 
0.19822 0.15663 0.93978 
0.30178 0.23495 0.72689 
0.03155 0.23495 0.93978 
0.13511 0.15663 0.72689 
0.19822 0.31326 0.27311 
0.30178 0.39158 0.06022 
0.03155 0.39158 0.27311 
0.13511 0.31326 0.06022 
0.19822 0.31326 0.60644 
0.30178 0.39158 0.39356 
0.03155 0.39158 0.60644 
0.13511 0.31326 0.39356 
0.19822 0.31326 0.93978 
0.30178 0.39158 0.72689 
0.03155 0.39158 0.93978 
0.13511 0.31326 0.72689 
0.53155 -0.00000 0.27311 
0.63511 0.07832 0.06022 
0.36489 0.07832 0.27311 
0.46845 -0.00000 0.06022 
0.53155 -0.00000 0.60644 
0.63511 0.07832 0.39356 
0.36489 0.07832 0.60644 
0.46845 -0.00000 0.39356 
0.53155 -0.00000 0.93978 
0.63511 0.07832 0.72689 
0.36489 0.07832 0.93978 
0.46845 -0.00000 0.72689 
0.53155 0.15663 0.27311 
0.63511 0.23495 0.06022 
0.36489 0.23495 0.27311 
0.46845 0.15663 0.06022 
0.53155 0.15663 0.60644 
0.63511 0.23495 0.39356 
0.36489 0.23495 0.60644 
0.46845 0.15663 0.39356 
0.53155 0.15663 0.93978 
0.63511 0.23495 0.72689 
0.36489 0.23495 0.93978 
0.46845 0.15663 0.72689 
0.53155 0.31326 0.27311 
0.63511 0.39158 0.06022 
0.36489 0.39158 0.27311 
0.46845 0.31326 0.06022 
0.53155 0.31326 0.60644 
0.63511 0.39158 0.39356 
0.36489 0.39158 0.60644 
0.46845 0.31326 0.39356 
0.53155 0.31326 0.93978 
0.63511 0.39158 0.72689 
0.36489 0.39158 0.93978 
0.46845 0.31326 0.72689 
0.86489 -0.00000 0.27311 
0.96845 0.07832 0.06022 
0.69822 0.07832 0.27311 
0.80178 -0.00000 0.06022 
0.86489 -0.00000 0.60644 
0.96845 0.07832 0.39356 
0.69822 0.07832 0.60644 
0.80178 -0.00000 0.39356 
0.86489 -0.00000 0.93978 
0.96845 0.07832 0.72689 
0.69822 0.07832 0.93978 
0.80178 -0.00000 0.72689 
0.86489 0.15663 0.27311 
0.96845 0.23495 0.06022 
0.69822 0.23495 0.27311 
0.80178 0.15663 0.06022 
0.86489 0.15663 0.60644 
0.96845 0.23495 0.39356 
0.69822 0.23495 0.60644 
0.80178 0.15663 0.39356 
0.86489 0.15663 0.93978 
0.96845 0.23495 0.72689 
0.69822 0.23495 0.93978 
0.80178 0.15663 0.72689 
0.86489 0.31326 0.27311 
0.96845 0.39158 0.06022 
0.69822 0.39158 0.27311 
0.80178 0.31326 0.06022 
0.86489 0.31326 0.60644 
0.96845 0.39158 0.39356 
0.69822 0.39158 0.60644 
0.80178 0.31326 0.39356 
0.86489 0.31326 0.93978 
0.96845 0.39158 0.72689 
0.69822 0.39158 0.93978 
0.80178 0.31326 0.72689