Si O
 1.0000000000000000
    40.2719999999999985    0.0000000000000000    0.0000000000000000
     0.0000000000000000   38.7096000000000018    0.0000000000000000
     0.0000000000000000    0.0000000000000000   50.0000000000000000
Si O
 290 144
Cartesian
9.886252464000 	34.660614549600 	25.777279741440 
34.514231616000 	5.590633980000 	25.011630293174 
21.775996656000 	1.292819349840 	24.910111609039 
16.509989664000 	34.691233843200 	24.857804241617 
16.581190560000 	30.675228972000 	24.123692436350 
3.028349692800 	7.465146360000 	27.782661721720 
18.691443360000 	19.123974655200 	25.521646857002 
11.924257296000 	7.445443173600 	28.786829390185 
31.767802032000 	14.908808892000 	24.380645606249 
25.249013664000 	3.983721064800 	24.773163268577 
27.790660128000 	11.727034610400 	25.030294989625 
20.688169392000 	14.965479746400 	26.135023792278 
29.209201056000 	36.520649539200 	22.328109972284 
17.717344224000 	13.059999686400 	27.442735848673 
24.881934384000 	34.875723796800 	22.484563472844 
37.023056400000 	13.288347616800 	25.695786970685 
15.754003680000 	9.454084317600 	28.261786026121 
35.887547088000 	17.204830106400 	24.420469328231 
0.499751356800 	38.361755534400 	25.042800983987 
27.576614448000 	7.497546295200 	25.041625131192 
0.251151495360 	4.166778763200 	26.330219031727 
14.349316320000 	19.631960736000 	26.480150139786 
14.211747168000 	0.223772068584 	26.668885792532 
3.676648348800 	24.932892069600 	24.512101069958 
7.574599392000 	0.303241329000 	26.949010138022 
34.655264160000 	30.978325140000 	21.562496587177 
22.295143008000 	24.838247097600 	22.784455743900 
10.994054640000 	17.097372256800 	27.695734569439 
24.529473840000 	28.470717252000 	21.741950052250 
5.274061392000 	19.231897020000 	26.506193080524 
0.245217013440 	26.917726809600 	23.193175595398 
7.854328704000 	22.623283785600 	25.870028377834 
18.325934688000 	30.876402763200 	23.645966665386 
17.911334448000 	25.475445823200 	24.004251155542 
17.450260320000 	5.472956796000 	27.365544514358 
39.830216160000 	1.486289930640 	25.340697419876 
39.849788352000 	5.467847128800 	26.419969366357 
7.150454688000 	12.056917821600 	28.649086345782 
36.513655872000 	11.409538471200 	25.815268532051 
29.741838528000 	3.517312965360 	24.085959888561 
39.970443264000 	36.556378500000 	24.221581008007 
26.482102032000 	13.181818797600 	25.012696389561 
36.449905296000 	7.532539773600 	25.757273161842 
39.818255376000 	9.478742332800 	26.858107774142 
26.212964256000 	1.609460006880 	23.891676110071 
29.659925280000 	11.322790257600 	24.936267324461 
33.268578384000 	17.282404144800 	23.884729385207 
36.485103024000 	3.637653369840 	24.999832187102 
23.708045856000 	20.575778203200 	23.548173529185 
29.666771520000 	7.325675671200 	24.863022503241 
19.737468288000 	5.427008500800 	26.666571108320 
26.408082096000 	5.689266040800 	24.935753188995 
19.730783136000 	13.449069876000 	26.762848339918 
22.996117440000 	7.393185213600 	26.000631981295 
33.186342960000 	1.597049709120 	23.725519002330 
27.758482800000 	23.006276568000 	22.026530791290 
23.008037952000 	11.494854429600 	26.046800344728 
19.591482288000 	1.592435524800 	25.680616096179 
33.024328704000 	9.336678100800 	25.187675657750 
29.714493840000 	15.374059574400 	24.210050240792 
2.950995235200 	3.651623664480 	27.005895373954 
22.909532640000 	3.685239081120 	25.287246196027 
19.733199456000 	9.375116733600 	27.122892441175 
16.710665040000 	11.553538183200 	27.926444108074 
16.496619360000 	7.338875644800 	27.932992610776 
36.538946688000 	38.501806867200 	23.832796966911 
36.674502240000 	15.114511706400 	25.206383425554 
26.477511024000 	17.130662512800 	24.034885622923 
39.978054672000 	13.259934770400 	26.580230126339 
16.356351984000 	3.634916601120 	27.224725852796 
33.261530784000 	21.055312728000 	22.678523959426 
33.095569872000 	13.216928404800 	24.879250002593 
30.029300064000 	38.636206598400 	22.976775368697 
13.042812096000 	1.767135820560 	27.354164427446 
9.979361328000 	15.436730416800 	28.187761078591 
23.062968960000 	38.457484375200 	24.035819330596 
6.440137152000 	1.738993941360 	27.245204160600 
13.068384816000 	5.677575741600 	28.377829601182 
29.820328656000 	19.232400244800 	23.043351297430 
2.979491702400 	11.340364416000 	27.824221829776 
33.364546560000 	36.394378824000 	22.504367401430 
9.676797792000 	7.646578255200 	28.888598014291 
26.423304912000 	9.391374765600 	25.335577703282 
26.571465600000 	32.622476690400 	21.642516123079 
6.396200400000 	13.328257214400 	28.339768082803 
33.364627104000 	32.528915587200 	21.552046157534 
3.060635755200 	34.477750399200 	24.650821001295 
3.067602811200 	23.156198848800 	24.763958557835 
29.877152448000 	34.554163149600 	21.753481916975 
16.385388096000 	15.291182320800 	27.330089462590 
3.107351275200 	7.488720506400 	27.807219260937 
3.021805492800 	30.683938632000 	23.979836171010 
2.995890460800 	38.445290851200 	25.815295796555 
16.283580480000 	19.153742337600 	26.196130941981 
29.877998160000 	30.710261160000 	21.076266425657 
2.941599777600 	15.223014715200 	27.129083126904 
13.000284864000 	21.054461116800 	26.249514213991 
3.120717552000 	26.919584870400 	24.052273080247 
13.215740064000 	9.484084257600 	28.762541194717 
23.090112288000 	19.166942311200 	24.171215959751 
9.645144000000 	3.821136873840 	28.158095523602 
6.370144416000 	28.841903606400 	24.677288051702 
6.487859472000 	17.045346554400 	27.428421939377 
6.289237968000 	5.562027585600 	28.232551969088 
26.580003264000 	36.535204348800 	22.619613259374 
19.619672688000 	17.252017108800 	25.830144119879 
36.630605760000 	19.265651791200 	23.953376392491 
32.940361584000 	5.451589096800 	24.727389798793 
26.664292560000 	24.808053609600 	21.749134441699 
23.330254224000 	26.883313975200 	22.164167877501 
16.137715296000 	38.568387379200 	26.122088638877 
29.811952080000 	22.997489488800 	21.888950003205 
39.994284288000 	21.119957760000 	24.348837930708 
13.257260496000 	13.252463817600 	28.430010130200 
19.710888768000 	21.168847984800 	24.551891484304 
39.949340736000 	17.241449388000 	25.572718702867 
6.356532480000 	9.451103678400 	28.672660332361 
9.836637360000 	11.615318704800 	28.900582946268 
36.599837952000 	34.594924358400 	22.677557533175 
39.954012288000 	28.707387746400 	22.904219122102 
26.473926816000 	28.696820025600 	21.331969948164 
9.708693216000 	26.894307501600 	25.116112562293 
19.781566128000 	32.807585997600 	23.474095475525 
23.123981040000 	15.247788859200 	25.337451337827 
12.981598656000 	17.161088258400 	27.494055400800 
19.701666480000 	24.865576075200 	23.575396236728 
19.680845856000 	36.682107280800 	24.495112792655 
38.759142048000 	11.328674116800 	26.461486908838 
33.143493552000 	24.894066340800 	21.641398981136 
13.003224720000 	28.855993900800 	24.794653084371 
36.550504752000 	23.055515179200 	22.773032248575 
40.031253984000 	32.572425177600 	23.246674956954 
6.516372048000 	25.018362866400 	25.110492853021 
36.559767312000 	30.656222558400 	21.974861528020 
13.100803776000 	32.892708408000 	25.160069368115 
25.234918464000 	3.650454634560 	24.688169574034 
29.833618416000 	26.877081729600 	21.124466945112 
40.086507168000 	25.044530556000 	23.347323788590 
16.357076880000 	23.018779768800 	24.991324114957 
6.400670592000 	21.181660862400 	26.097171247280 
23.262718080000 	34.701491887200 	22.850879028320 
35.300864592000 	9.450910130400 	25.598763054510 
26.657406048000 	21.053493376800 	22.753808353377 
35.550832896000 	17.212765574400 	24.338377262110 
16.410397008000 	26.854126936800 	24.221671077642 
38.651213088000 	7.515739807200 	26.378344663702 
32.023931952000 	15.336317714400 	24.294237589524 
38.728253424000 	3.390194509920 	25.569366645202 
15.571370160000 	9.414136010400 	28.304942424126 
35.299535616000 	5.541472788000 	25.165801797994 
21.997774560000 	9.433916616000 	26.425302097565 
28.662307296000 	13.272670228800 	24.726498538991 
18.681294816000 	7.397094883200 	27.314305111376 
1.737237427200 	1.650743795280 	26.064985725686 
21.862702272000 	1.662294739920 	25.000475939872 
36.601811280000 	26.893378471200 	22.036156528251 
9.648204672000 	22.939773475200 	25.896564178065 
19.884622176000 	28.786432749600 	23.079706266331 
9.802406160000 	30.769409428800 	25.077246212296 
9.708652944000 	38.493677851200 	26.926656066003 
3.178330675200 	19.140155268000 	26.021383904418 
28.464773136000 	1.797542211360 	23.648352486331 
1.765556697600 	9.422032768800 	27.542286147078 
13.047966912000 	24.905679220800 	25.219775038365 
1.766414491200 	5.536053444000 	27.109150350323 
28.601657664000 	5.459524564800 	24.611359818415 
9.795358560000 	19.186413240000 	27.052918555245 
23.195061120000 	30.892428537600 	22.171416705240 
38.774687040000 	38.411187693600 	24.440639970830 
6.397448832000 	32.628437968800 	25.012073707944 
32.162950896000 	19.150877827200 	23.159088434949 
23.210485296000 	22.800844720800 	23.015492693868 
18.659709024000 	3.521257473600 	26.538187411746 
31.850560992000 	11.291087095200 	24.997553327338 
28.703304192000 	9.308691060000 	25.050884321809 
11.914632288000 	7.546746196800 	28.799087329364 
25.268908032000 	11.335138620000 	25.491902922139 
21.869910960000 	5.552582443200 	26.033426580515 
12.955864848000 	36.604688080800 	26.130098155977 
25.408571328000 	15.164485800000 	24.791737343568 
31.862884224000 	3.457847277840 	24.131242727796 
33.211593504000 	28.754845716000 	21.218439835419 
31.901505072000 	7.459262500800 	24.941619305180 
35.330504784000 	13.294231476000 	25.271896218488 
9.794794752000 	34.581492127200 	25.756036442793 
35.449508544000 	1.732173309840 	24.188550804908 
25.299595296000 	38.460581143200 	23.476265149166 
32.285216688000 	38.405032867200 	23.005711693133 
28.870795440000 	36.554326891200 	22.357416734575 
6.328301808000 	36.602597762400 	25.998314182208 
18.882010464000 	11.380544980800 	27.312585738770 
8.669353440000 	13.573018015200 	28.565942798540 
38.876897376000 	15.177918031200 	25.823166568880 
16.198244112000 	30.644687097600 	24.220759110691 
25.225011552000 	7.462707655200 	25.445577744336 
21.914653152000 	13.352528133600 	26.106365937922 
1.813299153600 	36.384740133600 	24.821274691809 
18.600549456000 	19.213393831200 	25.520233823665 
28.633834992000 	17.270326749600 	23.723509795249 
16.507130352000 	34.803182006400 	24.887636472364 
32.173663248000 	34.564808289600 	21.847452316513 
11.868238944000 	3.746810570880 	28.064295787705 
18.601153536000 	15.228821155200 	26.715646073129 
15.206505840000 	5.597524288800 	27.968034566857 
25.426089648000 	19.082748931200 	23.618510008565 
5.116638144000 	11.393822373600 	28.355276250676 
5.162588496000 	3.635617244880 	27.555263824903 
18.460604256000 	38.554374504000 	25.466061631404 
35.488250208000 	36.559901073600 	22.958569177224 
28.774666176000 	32.617289604000 	21.378544921309 
8.623000368000 	9.573735691200 	28.949134782354 
12.103185792000 	11.433770680800 	28.819247454450 
15.434848080000 	13.275496029600 	28.007242549470 
22.037925744000 	24.910517920800 	22.846058151526 
38.850720576000 	34.574446980000 	23.316775541559 
1.857002328000 	13.249986403200 	27.244481683917 
15.256201488000 	17.146417320000 	27.081323746594 
2.007337704000 	21.183596342400 	25.031267696760 
1.997515363200 	32.583302575200 	23.936368983118 
21.992982192000 	32.742166773600 	22.780037966538 
5.197222416000 	15.191737358400 	27.700796776729 
25.558383168000 	30.717151468800 	21.576783829000 
11.891636976000 	26.961081561600 	25.031523916107 
35.387046672000 	21.083686864800 	23.065602498749 
22.239527376000 	28.850535847200 	22.355886427014 
25.532850720000 	34.583814703200 	22.266208154991 
5.453513424000 	19.079265067200 	26.593219647097 
28.710029616000 	28.861877760000 	21.054748379833 
38.811858096000 	22.984483063200 	23.437643750509 
8.712001488000 	17.164959218400 	27.651508090205 
21.972765648000 	36.615797736000 	23.767524936628 
8.619859152000 	1.756630035120 	27.511756110388 
5.226943152000 	34.539376082400 	25.203353882206 
12.080915376000 	15.162124514400 	28.160583387996 
8.597749824000 	28.814264952000 	24.948897064630 
38.862922992000 	19.187961624000 	24.618654992664 
8.491310928000 	5.719807915200 	28.541156494321 
5.255657088000 	7.498204358400 	28.338494855190 
5.199316560000 	38.624477589600 	26.422508571689 
5.169354192000 	30.739564327200 	24.520100401913 
15.262765824000 	1.818847975200 	26.960039263832 
5.269389840000 	26.964023491200 	24.576909793143 
1.877593401600 	28.821271389600 	23.578739087162 
32.090259936000 	22.944108950400 	21.985795756914 
1.985498198400 	25.068104702400 	24.009689917200 
25.596641568000 	26.737649750400 	21.631740526258 
5.286344352000 	23.108237654400 	25.324407381646 
35.508547296000 	32.646128256000 	21.981410572404 
28.858874928000 	21.099286833600 	22.485077992088 
8.666453856000 	24.963201686400 	25.373039117847 
18.581984064000 	30.760196544000 	23.558021465514 
18.604898832000 	23.041811980800 	24.346270743889 
35.414230272000 	24.917408229600 	22.055398020764 
38.891677200000 	30.664854799200 	22.642989182990 
18.666233088000 	26.892913956000 	23.573731572481 
11.956555440000 	38.623006624800 	26.885514287814 
1.900407489600 	17.193333355200 	26.271804549029 
12.075156480000 	19.162297159200 	26.965222371735 
11.882132784000 	22.969966963200 	25.813038164749 
28.827301680000 	24.908040506400 	21.477547293874 
15.166072752000 	21.038280504000 	25.860170393290 
25.494552048000 	22.964121813600 	22.410002162184 
21.847962720000 	17.243694544800 	25.143859323018 
32.114463408000 	30.724622421600 	21.163297615158 
12.042334800000 	30.880854367200 	24.995142333942 
18.757167264000 	34.819556167200 	24.245981390079 
21.832015008000 	20.851197007200 	23.995659652502 
32.022441888000 	26.825172156000 	21.207090271161 
38.821563648000 	26.822191516800 	22.679186233760 
15.153991152000 	28.712149027200 	24.405231360904 
15.203042448000 	32.770347362400 	24.748513925069 
15.174811776000 	36.664687960800 	25.746051614865 
15.269007984000 	24.932117877600 	24.803562853031 
27.668958144000 	30.663770930400 	21.223936538540 
8.653325184000 	32.694747513600 	25.294581283172 
8.485954752000 	21.010951526400 	26.408296764079 
35.423694192000 	28.769981169600 	21.629561149107 
8.660332512000 	36.568378476000 	26.270674543010 
12.003512592000 	34.687479012000 	25.694440982721 
20.867983872000 	11.518583414400 	26.683129299926 
27.907448928000 	3.558170948160 	24.218795524614 
0.417519960000 	35.110884616800 	24.027152102945 
37.387598544000 	1.978064430960 	24.761714102952 
30.043596624000 	0.215697633120 	23.070621970574 
1.190387966400 	18.448027620000 	25.662698796642 
27.493895760000 	34.193776773600 	21.837685200665 
38.463263664000 	21.023996661600 	23.908439015368 
30.821530848000 	21.334331524800 	22.377770666629 
21.036643008000 	19.029484521600 	24.825189276011 
23.340281952000 	31.027486332000 	22.144900960617 
19.989007200000 	28.986019447200 	23.045610456741 
9.769181760000 	8.051519380800 	28.928583580402 
13.841889120000 	9.423310185600 	28.661397257867 
7.284640992000 	19.522296439200 	26.760111553730 
33.623898240000 	5.700182148000 	24.875776870754 
6.056506080000 	36.629113838400 	25.958220494705 
9.604469280000 	12.006208245600 	28.853605023512 
38.259447072000 	25.125201362400 	22.771760973833 
33.827875920000 	36.783332884800 	22.696217784500 
23.336979648000 	35.103491083200 	22.936817023803 
34.279083408000 	27.397880688000 	21.461092721206 
12.598249488000 	25.234285015200 	25.214288884701 
13.221740592000 	13.238102556000 	28.437826023204 
1.086510369600 	15.318395169600 	26.556060487349 
38.608202592000 	11.548776902400 	26.395674364166 
26.488384464000 	20.489146118400 	22.960426960096 
23.236138560000 	22.848496238400 	22.995319009271 
1.859930102400 	1.793109962160 	26.146195808632 
28.735441248000 	13.191767164800 	24.735519979212 
12.519235824000 	1.243793641440 	27.256475950018 
35.396389776000 	9.432058555200 	25.619972877088 
1.543629787200 	5.706066007200 	27.075706535951 
16.489088496000 	35.108523331200 	24.973658158354 
38.733287424000 	3.756669906000 	25.670389122713 
35.100954384000 	5.641420975200 	25.142208044261 
38.662891968000 	7.734371628000 	26.405082531436 
3.088701312000 	5.473692278400 	27.479162124619 
18.593461584000 	7.441843180800 	27.346174379418 
25.325127744000 	3.617415990960 	24.659700173804 
31.921359168000 	15.214730860800 	24.316637991094 
1.708144934400 	9.463645588800 	27.525538926742 
38.703445872000 	38.638567884000 	24.492816867038 
18.585970992000 	3.672534590400 	26.601533370769 
28.659407712000 	1.475973822240 	23.532260440783 
15.227487552000 	9.406665057600 	28.384153935491 
22.078761552000 	9.375039314400 	26.400289456596 
22.010138064000 	5.625085524000 	26.005891408977 
28.718849184000 	5.605962981600 	24.632267004595 
22.089272544000 	1.626623843520 	24.921504596551 
31.843674480000 	11.303783844000 	24.995936612314 
28.678174464000 	9.159426842400 	25.049232328540 
25.197143328000 	11.262364572000 	25.513723770731 
20.907329616000 	3.632272735440 	25.871581977764 
32.119457136000 	19.206077716800 	23.137133231461 
25.176524064000 	14.998228068000 	24.883436386172 
8.705799600000 	13.123444720800 	28.650255629347 
18.648835584000 	19.168722952800 	25.520078733238 
31.845003456000 	3.480488522880 	24.136036059252 
35.279117712000 	13.327676570400 	25.254398423757 
32.205880848000 	38.174207522400 	22.923199191517 
25.353922224000 	38.439136024800 	23.457621349044 
31.927842960000 	7.338759516000 	24.929649342940 
21.934587792000 	13.282425048000 	26.113063014814 
11.753785920000 	7.571597760000 	28.815467731002 
28.747965840000 	36.491385081600 	22.346524014760 
32.167823808000 	34.443531112800 	21.816355016461 
27.471786432000 	15.118808472000 	24.448160567833 
17.519326800000 	17.152610856000 	26.493586034911 
1.815594657600 	36.703668528000 	24.919153189747 
35.155160496000 	1.915800039360 	24.179955993830 
18.482552496000 	11.284854849600 	27.442275278617 
35.462838576000 	17.174288232000 	24.329888817986 
15.277867824000 	5.690311200000 	27.970287370334 
25.329759024000 	7.503855960000 	25.427517549684 
27.659252592000 	3.559247075040 	24.247630928590 
21.818000352000 	28.564626741600 	22.486594241422 
18.596320896000 	15.039608630400 	26.764673237628 
28.770115440000 	32.600838024000 	21.375930005851 
0.619685400000 	11.467293194400 	27.109269899809 
27.549954384000 	11.183900212800 	25.109367138592 
5.049383904000 	3.707717745840 	27.549938909504 
5.111080608000 	11.152545436800 	28.374124495416 
20.835645456000 	11.390144961600 	26.705016514741 
25.540864848000 	19.314116210400 	23.519378549474 
15.304648704000 	13.361044245600 	28.021676442119 
37.473096000000 	1.858335638160 	24.748819480726 
12.147887712000 	11.573860723200 	28.801560515206 
38.892321552000 	15.223092134400 	25.816412728154 
22.141303968000 	24.605912078400 	22.878511982245 
35.254511520000 	36.740558776800 	22.961318090465 
15.229783056000 	17.200959146400 	27.070673029519 
11.880924624000 	3.900069619200 	28.103668308945 
1.871484139200 	13.318424976000 	27.236534959094 
25.207815408000 	30.654248368800 	21.646085166469 
8.650022880000 	9.381774784800 	28.948981971061 
12.013661136000 	26.637972530400 	25.057670553928 
18.530315088000 	38.449742455200 	25.411069367964 
28.818039120000 	17.217642984000 	23.726492742845 
37.635029712000 	36.650094441600 	23.544403833361 
1.964472187200 	21.016835385600 	25.070504664551 
38.738643600000 	34.648962960000 	23.301756774114 
8.723398464000 	17.075230365600 	27.679484251099 
12.091547184000 	14.965944261600 	28.208406956580 
5.333059872000 	15.130460061600 	27.745126547264 
21.948964896000 	32.440773828000 	22.739790886456 
1.937006683200 	32.688824944800 	23.937282758073 
5.299996560000 	34.785646557600 	25.282186689669 
32.153768880000 	22.993037884800 	21.978413888930 
30.897644928000 	1.351565038800 	23.446997971285 
5.242327056000 	38.447845684800 	26.374403042272 
5.204310288000 	7.440449635200 	28.320940183421 
35.393772096000 	21.119841631200 	23.055853494356 
25.207130784000 	34.555324437600 	22.328542994616 
20.909866752000 	34.580021162400 	23.516261587755 
25.520688576000 	26.711211093600 	21.650590539244 
22.111865136000 	36.583862316000 	23.716262305115 
28.604557248000 	21.096615871200 	22.503961746881 
38.757168720000 	19.061729618400 	24.627456129144 
8.607978912000 	1.755573263040 	27.510593287378 
5.277766416000 	23.060237750400 	25.335402926040 
8.438474064000 	5.608904911200 	28.515248923081 
1.882969713600 	28.922380864800 	23.579489192638 
5.217841680000 	30.814002888000 	24.537279767483 
37.470558864000 	5.821730292000 	25.774874781730 
8.493686976000 	28.833426204000 	24.941048409005 
11.027399856000 	16.991385372000 	27.726223138873 
38.923129632000 	23.021953956000 	23.461444865044 
24.153051456000 	28.527194558400 	21.833412983595 
2.074757059200 	25.019446735200 	24.045684493568 
18.757771344000 	22.957386343200 	24.322538720470 
18.491734512000 	26.558463012000 	23.666290248531 
28.804346640000 	28.588587984000 	21.052589946520 
28.700887872000 	24.889034092800 	21.490162594602 
18.769933488000 	30.414790783200 	23.472888749572 
15.274847424000 	1.799075111520 	26.951160504430 
8.615308416000 	24.998853228000 	25.362441783988 
38.894657328000 	27.079726485600 	22.673733858570 
5.261979792000 	26.915249395200 	24.580610745906 
22.034905344000 	17.049488481600 	25.146862362004 
12.079747488000 	23.109166684800 	25.757556740171 
38.880642672000 	30.880815657600 	22.659166378220 
12.150908112000 	19.128077872800 	26.968907544255 
35.492962032000 	32.668270147200 	21.981821796252 
32.090944560000 	30.684016051200 	21.157620115232 
35.604676560000 	24.997072586400 	22.083285901228 
15.295063968000 	21.081596546400 	25.817613319143 
32.123645424000 	26.879597853600 	21.210054466553 
11.830826256000 	30.819693199200 	25.008344184862 
11.868923568000 	-0.008650279474 	26.918710397558 
25.213091040000 	22.923050928000 	22.481418217690 
22.043040288000 	21.050744995200 	23.869783826463 
27.563445504000 	34.542898656000 	21.915217953098 
34.075025184000 	11.227254964800 	25.291161801795 
15.140741664000 	32.645005677600 	24.739553444109 


