Ce  O                                   
   1.00000000000000     
    30.0000000000000000    0.0000000000000000    0.0000000000000000
     0.0000000000000000   30.0000000000000000    0.0000000000000000
     0.0000000000000000    0.0000000000000000   30.0000000000000000
   Ce   O 
    40    80
Direct
  0.4999966383476959  0.4997865009913980  0.2467456614390429
  0.5925960243568937  0.4073412854893945  0.4107105301299043
  0.4113492133960506  0.4999957814181428  0.5000058076761604
  0.4074093892172570  0.4073323688232406  0.4107134594978774
  0.5000080090664625  0.3179572908012247  0.4155204813937274
  0.5000017055816954  0.4081399550536275  0.3270416743247253
  0.6799759937427012  0.4126210647550295  0.5000457020379301
  0.4083049995788883  0.4998522312184903  0.3269643564499702
  0.3180105610677515  0.4999325921716320  0.4153779648450637
  0.5000045109313902  0.4113581586821269  0.5000840760941401
  0.4074119805815002  0.4074766294481833  0.5894348021141624
  0.5000159496116368  0.3180779369413145  0.5847714250113611
  0.5000169850795970  0.4084454764245748  0.6731034772411419
  0.5873870293255550  0.3200339010359201  0.5001322062785079
  0.6819951121120624  0.5000762426693015  0.5846129906255797
  0.5000071182660619  0.5002081759618449  0.7532436457896381
  0.5926064034394827  0.4074885637568784  0.5894275144515291
  0.3200279167611910  0.4126086790056718  0.5000475902220742
  0.4083083609196976  0.5001292736581888  0.6730353407551064
  0.4126334666698028  0.3200285592625960  0.5001425712790919
  0.5916913904863819  0.4998606707891327  0.3269622352048742
  0.4999997745556328  0.4999114690652462  0.4122108051598730
  0.5873609763362069  0.6799776327717950  0.4998605188991405
  0.4073978635129123  0.5925142588486949  0.4105695206810722
  0.4999922927388596  0.5915459041049544  0.3268936098000239
  0.4999870996247040  0.6819199559675440  0.4152282789801660
  0.5886532706137899  0.5000031678803651  0.4999970041963522
  0.5925889953782999  0.5925213132195140  0.4105639668953458
  0.4999964895704778  0.5886437091799479  0.4999195836546804
  0.6799661625318834  0.5873963274944032  0.4999429106106774
  0.6819902938909408  0.4999453017279407  0.4153723986775333
  0.5925872411444715  0.5926701507791066  0.5892809986097589
  0.4074002692380105  0.5926569086404427  0.5892924134668931
  0.4999846608476588  0.6820508324076968  0.5844830442843616
  0.4999992267090363  0.5918620727201613  0.6729553311068415
  0.3200207161070168  0.5873790827618919  0.4999510758291450
  0.4126109871668362  0.6799667384156294  0.4998726932715130
  0.5917060843588118  0.5001461410434302  0.6730297656072040
  0.3180050524160407  0.5000528121650660  0.5846215257266394
  0.5000062826244474  0.5000876792266382  0.5877912078501808
  0.2826185000919850  0.4465008422778780  0.4471904409825029
  0.3643043113023836  0.3642641987809156  0.4533209967503140
  0.3646068821613753  0.4535690565188730  0.3630109941410637
  0.3669151557392638  0.4555659850055420  0.4557100541810826
  0.5452900873343083  0.4546830278453058  0.4541056485638322
  0.4465781193683185  0.2825834595232877  0.4473309621093122
  0.4536974655191131  0.3644667578271807  0.3630851517525144
  0.4556083938859885  0.3668928151926920  0.4557865972524908
  0.4540633813456552  0.4538919035941973  0.2763413211645229
  0.4547129529831295  0.4546778442664845  0.4541095720001493
  0.4550028822525647  0.4548611306185322  0.3658121969379806
  0.5449973210581689  0.4548648874488563  0.3658081934014916
  0.5534413533834979  0.2825828440988687  0.4473271640154550
  0.5459355880575174  0.4538953378011428  0.2763369106409570
  0.5444057045955049  0.3668968277882740  0.4557817203206938
  0.5463070267715935  0.3644691354753107  0.3630830651060464
  0.6330864548884634  0.4555716281329438  0.4557027103786311
  0.7173841560748713  0.4465160816722715  0.4471792199748492
  0.6357070606478956  0.3642732981004002  0.4533144058165419
  0.6353932591569702  0.4535785358985365  0.3630043949169917
  0.2826259552016097  0.4465987428859037  0.5528936585458126
  0.3643182623063268  0.3643429927011184  0.5468626912125814
  0.3646060632774422  0.4537765784750505  0.6370903759470679
  0.3669203752929135  0.4556439656531310  0.5443689763748196
  0.5459436115823522  0.4542420028163363  0.7237300684564474
  0.4556258714842869  0.3669541376879337  0.5444446992059113
  0.4536949197667397  0.3647132019562562  0.6371536998161034
  0.4465728709701580  0.2826747390900550  0.5530377229202443
  0.4550122728159209  0.4551208826671100  0.6342666867750211
  0.4547130604738641  0.4547530956793580  0.5459839661670571
  0.4540778990673289  0.4542332210651807  0.7237352264926145
  0.5534587298730784  0.2826765589219562  0.5530326635925533
  0.5463496317750796  0.3647250080871203  0.6371520910630366
  0.5443931216891755  0.3669565724641046  0.5444375336306138
  0.5452926640034121  0.4547564089253910  0.5459786670935500
  0.5450140513615835  0.4551284423991220  0.6342608264413130
  0.7173787713872457  0.4466316932338756  0.5528777240984581
  0.6330818309942572  0.4556577251954721  0.5443590254490260
  0.6354152989070272  0.4538021890595090  0.6370790184381221
  0.6357006847633215  0.3643581530704338  0.5468593971751829
  0.2826218465396479  0.5533857247265672  0.4471122261536067
  0.3645952825156868  0.5462007124421007  0.3629184770317622
  0.3643008063988447  0.6356431899571433  0.4531433536472136
  0.3669174065677225  0.5443422626767784  0.4556413175042380
  0.4540661998296045  0.5457489151477404  0.2762641997712123
  0.4549968132965461  0.5448683219529613  0.3657381024641069
  0.4547089672629880  0.5452437159459649  0.4540214609654214
  0.4556085017125469  0.6330456308100310  0.4555659385947735
  0.4465379574153303  0.7173202255497770  0.4469825653427293
  0.4536593052716924  0.6352738071037010  0.3628526579632236
  0.5459183330041881  0.5457584196524934  0.2762647417506017
  0.5452879918528950  0.5452477918604473  0.4540205876171868
  0.5449953447925822  0.5448727072590742  0.3657362960378521
  0.5463164082911476  0.6352818692389235  0.3628464529961377
  0.5534293379333022  0.7173268635849439  0.4469666943758028
  0.5443718420785046  0.6330490322138402  0.4555576553867553
  0.7173648707773168  0.5534109362291275  0.4470989566065811
  0.6353943120336822  0.5462126066038806  0.3629068393184554
  0.6330764765758872  0.5443499068895647  0.4556311672019504
  0.6356789138985590  0.6356565682696527  0.4531358455259706
  0.2826096434763627  0.5534770351309959  0.5528184351863317
  0.3646038614248752  0.5464141726104543  0.6369925972507176
  0.3642905301019113  0.6357262754405397  0.5466872531881322
  0.3669107030168206  0.5444247485738174  0.5442973732058860
  0.5534034232839460  0.7174263857639573  0.5526652252020412
  0.4547113733892871  0.5453171499249123  0.5458971204259129
  0.4550025194128153  0.5451297983833072  0.6341937853848023
  0.4540623998792412  0.5460990012191758  0.7236646234057744
  0.4536840058462559  0.6355255532263868  0.6369176157829983
  0.4465477171490591  0.7174179686582249  0.5526997754598426
  0.4555918324512547  0.6331041849445640  0.5442208258317933
  0.5462959039665023  0.6355432635933624  0.6369152701172922
  0.5450026582979461  0.5451419410215124  0.6341866903295852
  0.5452872674881846  0.5453213226611098  0.5458912284207074
  0.5459421444473946  0.5461095579784185  0.7236574921150805
  0.5443926138500146  0.6331095447003676  0.5442190399299136
  0.6330806003537930  0.5444390052285613  0.5442898234095921
  0.6356922289136619  0.6357439731653969  0.5466767680124462
  0.6353949565628270  0.5464335972649152  0.6369895726137358
  0.7173821971216867  0.5535016057150415  0.5528073429998912
 