POSCAR Generated by VLAtoms at MaterialsSquare.com
1.0
21.32609 0.00000 0.00000
0.00000 21.32609 0.00000
0.00000 0.00000 20.66304
Ge Bi O 
48 64 192 
Direct
0.37500 0.18750 0.25802 
0.25000 0.37500 0.19352 
0.25000 0.12500 0.06451 
0.18750 0.25000 0.38703 
0.06250 0.25000 0.12901 
0.12500 0.06250 0.25802 
0.12500 0.43750 0.00000 
-0.00000 0.12500 0.45154 
-0.00000 0.37500 0.32253 
0.43750 -0.00000 0.12901 
0.31250 -0.00000 0.38703 
0.37500 0.31250 0.00000 
0.37500 0.68750 0.25802 
0.25000 0.87500 0.19352 
0.25000 0.62500 0.06451 
0.18750 0.75000 0.38703 
0.06250 0.75000 0.12901 
0.12500 0.56250 0.25802 
0.12500 0.93750 0.00000 
-0.00000 0.62500 0.45154 
-0.00000 0.87500 0.32253 
0.43750 0.50000 0.12901 
0.31250 0.50000 0.38703 
0.37500 0.81250 0.00000 
0.87500 0.18750 0.25802 
0.75000 0.37500 0.19352 
0.75000 0.12500 0.06451 
0.68750 0.25000 0.38703 
0.56250 0.25000 0.12901 
0.62500 0.06250 0.25802 
0.62500 0.43750 0.00000 
0.50000 0.12500 0.45154 
0.50000 0.37500 0.32253 
0.93750 -0.00000 0.12901 
0.81250 -0.00000 0.38703 
0.87500 0.31250 0.00000 
0.87500 0.68750 0.25802 
0.75000 0.87500 0.19352 
0.75000 0.62500 0.06451 
0.68750 0.75000 0.38703 
0.56250 0.75000 0.12901 
0.62500 0.56250 0.25802 
0.62500 0.93750 0.00000 
0.50000 0.62500 0.45154 
0.50000 0.87500 0.32253 
0.93750 0.50000 0.12901 
0.81250 0.50000 0.38703 
0.87500 0.81250 0.00000 
0.04338 0.29338 0.47127 
0.08162 0.41838 0.17378 
0.08162 0.08162 0.08424 
0.16838 0.08162 0.43181 
0.20662 0.20662 0.21325 
0.29338 0.45662 0.04477 
0.45662 0.04338 0.30279 
0.41838 0.16838 0.08424 
0.29338 0.04338 0.21325 
0.33162 0.16838 0.43181 
0.33162 0.33162 0.34226 
0.41838 0.33162 0.17378 
0.45662 0.45662 0.47127 
0.04338 0.20662 0.30279 
0.20662 0.29338 0.04477 
0.16838 0.41838 0.34226 
0.04338 0.79338 0.47127 
0.08162 0.91838 0.17378 
0.08162 0.58162 0.08424 
0.16838 0.58162 0.43181 
0.20662 0.70662 0.21325 
0.29338 0.95662 0.04477 
0.45662 0.54338 0.30279 
0.41838 0.66838 0.08424 
0.29338 0.54338 0.21325 
0.33162 0.66838 0.43181 
0.33162 0.83162 0.34226 
0.41838 0.83162 0.17378 
0.45662 0.95662 0.47127 
0.04338 0.70662 0.30279 
0.20662 0.79338 0.04477 
0.16838 0.91838 0.34226 
0.54338 0.29338 0.47127 
0.58162 0.41838 0.17378 
0.58162 0.08162 0.08424 
0.66838 0.08162 0.43181 
0.70662 0.20662 0.21325 
0.79338 0.45662 0.04477 
0.95662 0.04338 0.30279 
0.91838 0.16838 0.08424 
0.79338 0.04338 0.21325 
0.83162 0.16838 0.43181 
0.83162 0.33162 0.34226 
0.91838 0.33162 0.17378 
0.95662 0.45662 0.47127 
0.54338 0.20662 0.30279 
0.70662 0.29338 0.04477 
0.66838 0.41838 0.34226 
0.54338 0.79338 0.47127 
0.58162 0.91838 0.17378 
0.58162 0.58162 0.08424 
0.66838 0.58162 0.43181 
0.70662 0.70662 0.21325 
0.79338 0.95662 0.04477 
0.95662 0.54338 0.30279 
0.91838 0.66838 0.08424 
0.79338 0.54338 0.21325 
0.83162 0.66838 0.43181 
0.83162 0.83162 0.34226 
0.91838 0.83162 0.17378 
0.95662 0.95662 0.47127 
0.54338 0.70662 0.30279 
0.70662 0.79338 0.04477 
0.66838 0.91838 0.34226 
0.10481 0.28500 0.06440 
0.06240 0.10481 0.29414 
0.21500 0.18760 0.10817 
0.14519 0.28500 0.45164 
0.06240 0.39519 0.47992 
0.28500 0.06240 0.10817 
0.31260 0.16000 0.02084 
0.18740 0.09000 0.02084 
0.06260 0.09000 0.49520 
0.02019 0.18740 0.09289 
0.16000 0.02019 0.32263 
0.41000 0.22981 0.19341 
0.22981 0.18740 0.42315 
0.09000 0.02019 0.19341 
0.18740 0.41000 0.23718 
0.46500 0.06240 0.40787 
0.28500 0.43760 0.14985 
0.18760 0.10481 0.22190 
0.43760 0.14519 0.29414 
0.39519 0.46500 0.06440 
0.10481 0.21500 0.19362 
0.02019 0.31260 0.16513 
0.09000 0.47981 0.06461 
0.47981 0.06260 0.09289 
0.35481 0.03500 0.32242 
0.31240 0.35481 0.03612 
0.46500 0.43760 0.36619 
0.39519 0.03500 0.19362 
0.31240 0.14519 0.22190 
0.03500 0.31240 0.36619 
0.06260 0.41000 0.27886 
0.43740 0.34000 0.27886 
0.31260 0.34000 0.23718 
0.27019 0.43740 0.35091 
0.41000 0.27019 0.06461 
0.16000 0.47981 0.45144 
0.47981 0.43740 0.16513 
0.34000 0.27019 0.45144 
0.43740 0.16000 0.49520 
0.21500 0.31240 0.14985 
0.03500 0.18760 0.40787 
0.43760 0.35481 0.47992 
0.18760 0.39519 0.03612 
0.14519 0.21500 0.32242 
0.35481 0.46500 0.45164 
0.27019 0.06260 0.42315 
0.34000 0.22981 0.32263 
0.22981 0.31260 0.35091 
0.10481 0.78500 0.06440 
0.06240 0.60481 0.29414 
0.21500 0.68760 0.10817 
0.14519 0.78500 0.45164 
0.06240 0.89519 0.47992 
0.28500 0.56240 0.10817 
0.31260 0.66000 0.02084 
0.18740 0.59000 0.02084 
0.06260 0.59000 0.49520 
0.02019 0.68740 0.09289 
0.16000 0.52019 0.32263 
0.41000 0.72981 0.19341 
0.22981 0.68740 0.42315 
0.09000 0.52019 0.19341 
0.18740 0.91000 0.23718 
0.46500 0.56240 0.40787 
0.28500 0.93760 0.14985 
0.18760 0.60481 0.22190 
0.43760 0.64519 0.29414 
0.39519 0.96500 0.06440 
0.10481 0.71500 0.19362 
0.02019 0.81260 0.16513 
0.09000 0.97981 0.06461 
0.47981 0.56260 0.09289 
0.35481 0.53500 0.32242 
0.31240 0.85481 0.03612 
0.46500 0.93760 0.36619 
0.39519 0.53500 0.19362 
0.31240 0.64519 0.22190 
0.03500 0.81240 0.36619 
0.06260 0.91000 0.27886 
0.43740 0.84000 0.27886 
0.31260 0.84000 0.23718 
0.27019 0.93740 0.35091 
0.41000 0.77019 0.06461 
0.16000 0.97981 0.45144 
0.47981 0.93740 0.16513 
0.34000 0.77019 0.45144 
0.43740 0.66000 0.49520 
0.21500 0.81240 0.14985 
0.03500 0.68760 0.40787 
0.43760 0.85481 0.47992 
0.18760 0.89519 0.03612 
0.14519 0.71500 0.32242 
0.35481 0.96500 0.45164 
0.27019 0.56260 0.42315 
0.34000 0.72981 0.32263 
0.22981 0.81260 0.35091 
0.60481 0.28500 0.06440 
0.56240 0.10481 0.29414 
0.71500 0.18760 0.10817 
0.64519 0.28500 0.45164 
0.56240 0.39519 0.47992 
0.78500 0.06240 0.10817 
0.81260 0.16000 0.02084 
0.68740 0.09000 0.02084 
0.56260 0.09000 0.49520 
0.52019 0.18740 0.09289 
0.66000 0.02019 0.32263 
0.91000 0.22981 0.19341 
0.72981 0.18740 0.42315 
0.59000 0.02019 0.19341 
0.68740 0.41000 0.23718 
0.96500 0.06240 0.40787 
0.78500 0.43760 0.14985 
0.68760 0.10481 0.22190 
0.93760 0.14519 0.29414 
0.89519 0.46500 0.06440 
0.60481 0.21500 0.19362 
0.52019 0.31260 0.16513 
0.59000 0.47981 0.06461 
0.97981 0.06260 0.09289 
0.85481 0.03500 0.32242 
0.81240 0.35481 0.03612 
0.96500 0.43760 0.36619 
0.89519 0.03500 0.19362 
0.81240 0.14519 0.22190 
0.53500 0.31240 0.36619 
0.56260 0.41000 0.27886 
0.93740 0.34000 0.27886 
0.81260 0.34000 0.23718 
0.77019 0.43740 0.35091 
0.91000 0.27019 0.06461 
0.66000 0.47981 0.45144 
0.97981 0.43740 0.16513 
0.84000 0.27019 0.45144 
0.93740 0.16000 0.49520 
0.71500 0.31240 0.14985 
0.53500 0.18760 0.40787 
0.93760 0.35481 0.47992 
0.68760 0.39519 0.03612 
0.64519 0.21500 0.32242 
0.85481 0.46500 0.45164 
0.77019 0.06260 0.42315 
0.84000 0.22981 0.32263 
0.72981 0.31260 0.35091 
0.60481 0.78500 0.06440 
0.56240 0.60481 0.29414 
0.71500 0.68760 0.10817 
0.64519 0.78500 0.45164 
0.56240 0.89519 0.47992 
0.78500 0.56240 0.10817 
0.81260 0.66000 0.02084 
0.68740 0.59000 0.02084 
0.56260 0.59000 0.49520 
0.52019 0.68740 0.09289 
0.66000 0.52019 0.32263 
0.91000 0.72981 0.19341 
0.72981 0.68740 0.42315 
0.59000 0.52019 0.19341 
0.68740 0.91000 0.23718 
0.96500 0.56240 0.40787 
0.78500 0.93760 0.14985 
0.68760 0.60481 0.22190 
0.93760 0.64519 0.29414 
0.89519 0.96500 0.06440 
0.60481 0.71500 0.19362 
0.52019 0.81260 0.16513 
0.59000 0.97981 0.06461 
0.97981 0.56260 0.09289 
0.85481 0.53500 0.32242 
0.81240 0.85481 0.03612 
0.96500 0.93760 0.36619 
0.89519 0.53500 0.19362 
0.81240 0.64519 0.22190 
0.53500 0.81240 0.36619 
0.56260 0.91000 0.27886 
0.93740 0.84000 0.27886 
0.81260 0.84000 0.23718 
0.77019 0.93740 0.35091 
0.91000 0.77019 0.06461 
0.66000 0.97981 0.45144 
0.97981 0.93740 0.16513 
0.84000 0.77019 0.45144 
0.93740 0.66000 0.49520 
0.71500 0.81240 0.14985 
0.53500 0.68760 0.40787 
0.93760 0.85481 0.47992 
0.68760 0.89519 0.03612 
0.64519 0.71500 0.32242 
0.85481 0.96500 0.45164 
0.77019 0.56260 0.42315 
0.84000 0.72981 0.32263 
0.72981 0.81260 0.35091