POSCAR Generated by VLAtoms at MaterialsSquare.com
1.0
22.148999999999997 0 0
-11.0745 19.195799999999995 0
1.2246467991473533e-15 2.120365810580893e-15 20
C 
162 
cartesian
1.2305000000000000 	0.7104295100000010 	11.3708535169687000 
0.0000000000000004 	1.4208590100000000 	10.8899231522121000 
0.0000000000000004 	2.8432961700000000 	10.5834993020609000 
-1.2304999999999900 	3.5537256800000000 	9.9779283942379300 
-1.2304999999999900 	4.9761628399999900 	9.5134264474734800 
-2.4609999999999900 	5.6865923499999900 	8.9495696716794900 
3.6914999999999900 	0.7104295100000010 	11.9147471440280000 
2.4610000000000000 	1.4208590100000000 	11.6212963483846000 
2.4609999999999900 	2.8432961700000000 	11.3148724982335000 
1.2305000000000000 	3.5537256800000000 	10.7754527460738000 
1.2305000000000000 	4.9761628399999900 	10.3109507993094000 
0.0000000000000002 	5.6865923499999900 	9.6809428678520500 
6.1525000000000000 	0.7104295100000010 	11.8590691743739000 
4.9220000000000000 	1.4208590100000000 	11.8874832128786000 
4.9219999999999900 	2.8432961700000000 	11.5810593627274000 
3.6914999999999900 	3.5537256800000000 	11.3193463731331000 
3.6915000000000000 	4.9761628399999900 	10.8548444263686000 
2.4610000000000000 	5.6865923499999900 	10.4123160640246000 
-2.4610000000000000 	7.1090295099999900 	8.5520513510676700 
-3.6915000000000000 	7.8194590099999900 	8.1971297773404700 
-3.6915000000000000 	9.2418961700000000 	8.0592017188618300 
-4.9219999999999900 	9.9523256800000000 	8.0178616150572700 
-4.9219999999999900 	11.3747628400000000 	8.2063530904998500 
-6.1524999999999900 	12.0851923500000000 	8.4811304548243000 
-0.0000000000000003 	7.1090295099999900 	9.2834245472402400 
-1.2304999999999900 	7.8194590099999900 	8.7410234043997300 
-1.2304999999999900 	9.2418961700000000 	8.6030953459210900 
-2.4610000000000000 	9.9523256800000000 	8.2840484795512200 
-2.4610000000000000 	11.3747628400000000 	8.4725399549938000 
-3.6915000000000000 	12.0851923500000000 	8.4254524851702200 
2.4609999999999900 	7.1090295099999900 	10.0147977434128000 
1.2305000000000000 	7.8194590099999900 	9.5385477562356200 
1.2305000000000000 	9.2418961700000000 	9.4006196977569700 
-0.0000000000000003 	9.9523256800000000 	9.0154216757237900 
-0.0000000000000003 	11.3747628400000000 	9.2039131511663600 
-1.2304999999999900 	12.0851923500000000 	8.9693461122294700 
-6.1524999999999900 	13.5076295100000000 	8.9047130715187000 
-7.3830000000000000 	14.2180590100000000 	9.3977070108370900 
-7.3830000000000000 	15.6404961700000000 	9.8511453894244200 
-8.6135000000000000 	16.3509256800000000 	10.4056081622106000 
-8.6135000000000000 	17.7733628399999000 	10.6692011301778000 
-9.8439999999999900 	18.4837923499999000 	11.1318631407132000 
-3.6915000000000000 	13.5076295100000000 	8.8490351018646200 
-4.9220000000000000 	14.2180590100000000 	9.0294006949970700 
-4.9220000000000000 	15.6404961700000000 	9.4828390735844000 
-6.1524999999999900 	16.3509256800000000 	9.7857722951614900 
-6.1524999999999900 	17.7733628399999000 	10.0493652631287000 
-7.3829999999999900 	18.4837923499999000 	10.3633230689976000 
-1.2304999999999900 	13.5076295100000000 	9.3929287289238700 
-2.4610000000000000 	14.2180590100000000 	9.2955875594910200 
-2.4610000000000000 	15.6404961700000000 	9.7490259380783500 
-3.6915000000000000 	16.3509256800000000 	9.7300943255074100 
-3.6915000000000000 	17.7733628399999000 	9.9936872934746200 
-4.9219999999999900 	18.4837923499999000 	9.9950167531575300 
8.6135000000000000 	0.7104295100000010 	11.2392333073247000 
7.3830000000000000 	1.4208590100000000 	11.5191768970386000 
7.3829999999999900 	2.8432961700000000 	11.2127530468874000 
6.1524999999999900 	3.5537256800000000 	11.2636684034790000 
6.1524999999999900 	4.9761628399999900 	10.7991664567145000 
4.9219999999999900 	5.6865923499999900 	10.6785029285186000 
11.0744999999999000 	0.7104295100000010 	10.4494831038209000 
9.8439999999999900 	1.4208590100000000 	10.7506368253230000 
9.8439999999999900 	2.8432961700000000 	10.4442129751718000 
8.6134999999999900 	3.5537256800000000 	10.6438325364298000 
8.6134999999999900 	4.9761628399999900 	10.1793305896654000 
7.3830000000000000 	5.6865923499999900 	10.3101966126786000 
13.5354999999999000 	0.7104295100000010 	9.9921353045263500 
12.3049999999999000 	1.4208590100000000 	10.0706891381761000 
12.3049999999999000 	2.8432961700000000 	9.7642652880249000 
11.0744999999999000 	3.5537256800000000 	9.8540823329260400 
11.0744999999999000 	4.9761628399999900 	9.3895803861615800 
9.8439999999999900 	5.6865923499999900 	9.5416565409629600 
4.9219999999999900 	7.1090295099999900 	10.2809846079068000 
3.6914999999999900 	7.8194590099999900 	10.0824413832949000 
3.6914999999999900 	9.2418961700000000 	9.9445133248162200 
2.4609999999999900 	9.9523256800000000 	9.7467948718963600 
2.4609999999999900 	11.3747628400000000 	9.9352863473389300 
1.2304999999999900 	12.0851923500000000 	9.7668704640653500 
7.3829999999999900 	7.1090295099999900 	9.9126782920667400 
6.1524999999999900 	7.8194590099999900 	10.0267634136408000 
6.1525000000000000 	9.2418961700000000 	9.8888353551621400 
4.9219999999999900 	9.9523256800000000 	10.0129817363903000 
4.9220000000000000 	11.3747628400000000 	10.2014732118329000 
3.6914999999999900 	12.0851923500000000 	10.3107640911246000 
9.8439999999999900 	7.1090295099999900 	9.1441382203511500 
8.6134999999999900 	7.8194590099999900 	9.4069275465916400 
8.6134999999999900 	9.2418961700000000 	9.2689994881129900 
7.3830000000000000 	9.9523256800000000 	9.6446754205502900 
7.3829999999999900 	11.3747628400000000 	9.8331668959928700 
6.1525000000000000 	12.0851923500000000 	10.2550861214705000 
1.2304999999999900 	13.5076295100000000 	10.1904530807598000 
-0.0000000000000012 	14.2180590100000000 	10.0269607556636000 
-0.0000000000000029 	15.6404961700000000 	10.4803991342509000 
-1.2305000000000000 	16.3509256800000000 	10.2739879525667000 
-1.2305000000000000 	17.7733628399999000 	10.5375809205339000 
-2.4610000000000000 	18.4837923499999000 	10.2612036176515000 
3.6915000000000000 	13.5076295100000000 	10.7343467078190000 
2.4609999999999900 	14.2180590100000000 	10.7583339518362000 
2.4609999999999900 	15.6404961700000000 	11.2117723304235000 
1.2305000000000000 	16.3509256800000000 	11.0715123044026000 
1.2304999999999900 	17.7733628399999000 	11.3351052723698000 
-0.0000000000000012 	18.4837923499999000 	10.9925768138241000 
6.1525000000000000 	13.5076295100000000 	10.6786687381649000 
4.9219999999999900 	14.2180590100000000 	11.0245208163301000 
4.9220000000000000 	15.6404961700000000 	11.4779591949174000 
3.6915000000000000 	16.3509256800000000 	11.6154059314618000 
3.6915000000000000 	17.7733628399999000 	11.8789988994290000 
2.4610000000000000 	18.4837923499999000 	11.7239500099966000 
15.9964999999999000 	0.7104295100000010 	10.1580837324147000 
14.7659999999999000 	1.4208590100000000 	9.9118112246687700 
14.7659999999999000 	2.8432961700000000 	9.6053873745176200 
13.5354999999999000 	3.5537256800000000 	9.3967345336314700 
13.5354999999999000 	4.9761628399999900 	8.9322325868670100 
12.3049999999999000 	5.6865923499999900 	8.8617088538160300 
18.4574999999999000 	0.7104295100000010 	10.8417777044405000 
17.2269999999999000 	1.4208590100000000 	10.3750566018783000 
17.2269999999999000 	2.8432961700000000 	10.0686327517272000 
15.9964999999999000 	3.5537256800000000 	9.5626829615198600 
15.9964999999999000 	4.9761628399999900 	9.0981810147554000 
14.7659999999999000 	5.6865923499999900 	8.7028309403087500 
20.9184999999999000 	0.7104295100000010 	11.6083570254231000 
19.6879999999999000 	1.4208590100000000 	11.1657803213449000 
19.6879999999999000 	2.8432961700000000 	10.8593564711937000 
18.4574999999999000 	3.5537256800000000 	10.2463769335456000 
18.4574999999999000 	4.9761628399999900 	9.7818749867811900 
17.2269999999999000 	5.6865923499999900 	9.1660763175183100 
12.3050000000000000 	7.1090295099999900 	8.4641905332042000 
11.0744999999999000 	7.8194590099999900 	8.6171773430878400 
11.0744999999999000 	9.2418961700000000 	8.4792492846091900 
9.8439999999999900 	9.9523256800000000 	8.8761353488346900 
9.8439999999999900 	11.3747628400000000 	9.0646268242772700 
8.6134999999999900 	12.0851923500000000 	9.6352502544213800 
14.7659999999999000 	7.1090295099999900 	8.3053126196969400 
13.5354999999999000 	7.8194590099999900 	8.1598295437932700 
13.5354999999999000 	9.2418961700000000 	8.0219014853146200 
12.3049999999999000 	9.9523256800000000 	8.1961876616877700 
12.3049999999999000 	11.3747628400000000 	8.3846791371303500 
11.0745000000000000 	12.0851923500000000 	8.8455000509175500 
17.2269999999999000 	7.1090295099999900 	8.7685579969064900 
15.9964999999999000 	7.8194590099999900 	8.3257779716816600 
15.9964999999999000 	9.2418961700000000 	8.1878499132030100 
14.7659999999999000 	9.9523256800000000 	8.0373097481804900 
14.7659999999999000 	11.3747628400000000 	8.2258012236230700 
13.5354999999999000 	12.0851923500000000 	8.3881522516230100 
8.6134999999999900 	13.5076295100000000 	10.0588328711158000 
7.3829999999999900 	14.2180590100000000 	10.6562145004901000 
7.3830000000000000 	15.6404961700000000 	11.1096528790774000 
6.1524999999999900 	16.3509256800000000 	11.5597279618077000 
6.1525000000000000 	17.7733628399999000 	11.8233209297749000 
4.9220000000000000 	18.4837923499999000 	11.9901368744906000 
11.0744999999999000 	13.5076295100000000 	9.2690826676119800 
9.8439999999999900 	14.2180590100000000 	9.8876744287745000 
9.8439999999999900 	15.6404961700000000 	10.3411128073618000 
8.6134999999999900 	16.3509256800000000 	10.9398920947586000 
8.6134999999999900 	17.7733628399999000 	11.2034850627258000 
7.3830000000000000 	18.4837923499999000 	11.6218305586506000 
13.5355000000000000 	13.5076295100000000 	8.8117348683174000 
12.3049999999999000 	14.2180590100000000 	9.2077267416275700 
12.3049999999999000 	15.6404961700000000 	9.6611651202149000 
11.0744999999999000 	16.3509256800000000 	10.1501418912548000 
11.0745000000000000 	17.7733628399999000 	10.4137348592220000 
9.8439999999999900 	18.4837923499999000 	10.8532904869350000 
