O Zn
1.0
  5.206621000000   0.000000000000   0.000000000000
  0.000000000000   5.628924369537   0.000000000000
  0.000000000000   0.000000000000  19.749583000000
O Zn
 12  12
Selective dynamics
Direct
  0.117486000000   0.833300000000   0.082260243869  T T T
  0.617486000000   0.500000000000   0.082276699209  T T T
  0.117486000000   0.333300000000   0.164536943079  T T T
  0.617486000000   0.000000000000   0.164553398419  T T T
  0.117486000000   0.833300000000   0.246813642288  T T T
  0.617486000000   0.500000000000   0.246830097628  T T T
  0.117486000000   0.333300000000   0.329090341497  T T T
  0.617486000000   0.000000000000   0.329106796837  T T T
  0.117486000000   0.833300000000   0.411367040707  T T T
  0.617486000000   0.500000000000   0.411383496046  T T T
  0.117486000000   0.333300000000   0.493643739916  T T T
  0.617486000000   0.000000000000   0.493660195256  T T T
  0.500000000000   0.833300000000   0.082260243869  T T T
  0.000000000000   0.500000000000   0.082276699209  T T T
  0.500000000000   0.333300000000   0.164536943079  T T T
  0.000000000000   0.000000000000   0.164553398419  T T T
  0.500000000000   0.833300000000   0.246813642288  T T T
  0.000000000000   0.500000000000   0.246830097628  T T T
  0.500000000000   0.333300000000   0.329090341497  T T T
  0.000000000000   0.000000000000   0.329106796837  T T T
  0.500000000000   0.833300000000   0.411367040707  T T T
  0.000000000000   0.500000000000   0.411383496046  T T T
  0.500000000000   0.333300000000   0.493643739916  T T T
  0.000000000000   0.000000000000   0.493660195256  T T T
