Anatase_101                             
   1.00000000000000     
     7.5684299469000003    0.0000000000000000    0.0000000000000000
    -3.7842498664000002   10.2394941742000007    0.0000000000000000
     0.0000000000000000    0.0000000000000000   20.5489006042000000
   O    Ti
    48    24
Direct
  0.3905042902040615  0.2810768703456553  0.0517615954459177
  0.8905043062040633  0.2810768703456553  0.0517615954459177
  0.3905043392040620  0.7810769243456529  0.0517615954459177
  0.8905043392040625  0.7810769243456529  0.0517615954459177
  0.0367961689223997  0.0735325843058979  0.0826696468293366
  0.5367963899224000  0.0735325843058979  0.0826696468293366
  0.0367961819224043  0.5735331043058981  0.0826696468293366
  0.5367964029224046  0.5735331043058981  0.0826696468293366
  0.2173319395678573  0.4346515699967416  0.1245595144831688
  0.7173319555678580  0.4346515699967416  0.1245595144831688
  0.2173319645678558  0.9346515769967463  0.1245595144831688
  0.7173319955678542  0.9346515769967463  0.1245595144831688
  0.3584507236340153  0.2167558394902842  0.1702832405109005
  0.8584506916340199  0.2167558394902842  0.1702832405109005
  0.3584507326340196  0.7167558464902813  0.1702832405109005
  0.8584507326340197  0.7167558464902813  0.1702832405109005
  0.4681400654659602  0.4363072530867311  0.2252862812165071
  0.9681400654659600  0.4363072530867311  0.2252862812165071
  0.4681400984659593  0.9363073070867356  0.2252862812165071
  0.9681400984659592  0.9363073070867356  0.2252862812165071
  0.1105849075550165  0.2211391797962349  0.2680311865160604
  0.6105849225550145  0.2211391797962349  0.2680311865160604
  0.1105849285550147  0.7211392097962306  0.2680311865160604
  0.6105849435550198  0.7211392097962306  0.2680311865160604
  0.2904561054449801  0.0809435262037653  0.3024377924839371
  0.7904561214449813  0.0809435262037653  0.3024377924839371
  0.2904561184449848  0.5809438242037683  0.3024377924839371
  0.7904561494449837  0.5809438242037683  0.3024377924839371
  0.4329009475340367  0.3657747489132677  0.3451817227834914
  0.9329009155340413  0.3657747489132677  0.3451817227834914
  0.4329009565340410  0.8657747559132647  0.3451817227834914
  0.9329009565340411  0.8657747559132647  0.3451817227834914
  0.0425903793659819  0.0853264465097167  0.4001857614890951
  0.5425902693659798  0.0853264465097167  0.4001857614890951
  0.0425903843659788  0.5853261635097181  0.4001857614890951
  0.5425902903659779  0.5853261635097181  0.4001857614890951
  0.1837090584321419  0.3674314110032564  0.4459094635168321
  0.6837090744321438  0.3674314110032564  0.4459094635168321
  0.1837090524321414  0.8674314180032530  0.4459094635168321
  0.6837090834321410  0.8674314180032530  0.4459094635168321
  0.3642446190775961  0.2285499226941037  0.4877996451706620
  0.8642446820775982  0.2285499226941037  0.4877996451706620
  0.3642446280776004  0.7285499296941008  0.4877996451706620
  0.8642446910775954  0.7285499296941008  0.4877996451706620
  0.0105366977959368  0.0210051246543464  0.5187069645540844
  0.5105366977959364  0.0210051246543464  0.5187069645540844
  0.0105367067959339  0.5210051316543433  0.5187069645540844
  0.5105367067959335  0.5210051316543433  0.5187069645540844
  0.3109113340001452  0.1217390740919350  0.0953266458604556
  0.8109113190001478  0.1217390740919350  0.0953266458604556
  0.3109113590001437  0.6217390810919323  0.0953266458604556
  0.8109113280001450  0.6217390810919323  0.0953266458604556
  0.4452719093627795  0.3905306972461669  0.1233438808097250
  0.9452718933627778  0.3905306972461669  0.1233438808097250
  0.4452719103627760  0.8905306572461706  0.1233438808097250
  0.9452719103627757  0.8905306572461706  0.1233438808097250
  0.3827311962030974  0.2654402420806547  0.2682943276583778
  0.8827311962030975  0.2654402420806547  0.2682943276583778
  0.3827311942030973  0.7654402260806528  0.2682943276583778
  0.8827311942030973  0.7654402260806528  0.2682943276583778
  0.0183097037969008  0.0366425739193406  0.3021746743416180
  0.5183097767969032  0.0366425739193406  0.3021746743416180
  0.0183097257969027  0.5366428079193462  0.3021746743416180
  0.5183098047969055  0.5366428079193462  0.3021746743416180
  0.4557690966372274  0.4115523297538279  0.4471251091902768
  0.9557690966372278  0.4115523297538279  0.4471251091902768
  0.4557691056372246  0.9115523377538286  0.4471251091902768
  0.9557691056372249  0.9115523377538286  0.4471251091902768
  0.0901300869998497  0.1803429209080668  0.4751421761395467
  0.5901296859998555  0.1803429209080668  0.4751421761395467
  0.0901300889998499  0.6803429289080671  0.4751421761395467
  0.5901296949998527  0.6803429289080671  0.4751421761395467
 
  0.00000000E+00  0.00000000E+00  0.00000000E+00
  0.00000000E+00  0.00000000E+00  0.00000000E+00
  0.00000000E+00  0.00000000E+00  0.00000000E+00
  0.00000000E+00  0.00000000E+00  0.00000000E+00
  0.00000000E+00  0.00000000E+00  0.00000000E+00
  0.00000000E+00  0.00000000E+00  0.00000000E+00
  0.00000000E+00  0.00000000E+00  0.00000000E+00
  0.00000000E+00  0.00000000E+00  0.00000000E+00
  0.00000000E+00  0.00000000E+00  0.00000000E+00
  0.00000000E+00  0.00000000E+00  0.00000000E+00
  0.00000000E+00  0.00000000E+00  0.00000000E+00
  0.00000000E+00  0.00000000E+00  0.00000000E+00
  0.00000000E+00  0.00000000E+00  0.00000000E+00
  0.00000000E+00  0.00000000E+00  0.00000000E+00
  0.00000000E+00  0.00000000E+00  0.00000000E+00
  0.00000000E+00  0.00000000E+00  0.00000000E+00
  0.00000000E+00  0.00000000E+00  0.00000000E+00
  0.00000000E+00  0.00000000E+00  0.00000000E+00
  0.00000000E+00  0.00000000E+00  0.00000000E+00
  0.00000000E+00  0.00000000E+00  0.00000000E+00
  0.00000000E+00  0.00000000E+00  0.00000000E+00
  0.00000000E+00  0.00000000E+00  0.00000000E+00
  0.00000000E+00  0.00000000E+00  0.00000000E+00
  0.00000000E+00  0.00000000E+00  0.00000000E+00
  0.00000000E+00  0.00000000E+00  0.00000000E+00
  0.00000000E+00  0.00000000E+00  0.00000000E+00
  0.00000000E+00  0.00000000E+00  0.00000000E+00
  0.00000000E+00  0.00000000E+00  0.00000000E+00
  0.00000000E+00  0.00000000E+00  0.00000000E+00
  0.00000000E+00  0.00000000E+00  0.00000000E+00
  0.00000000E+00  0.00000000E+00  0.00000000E+00
  0.00000000E+00  0.00000000E+00  0.00000000E+00
  0.00000000E+00  0.00000000E+00  0.00000000E+00
  0.00000000E+00  0.00000000E+00  0.00000000E+00
  0.00000000E+00  0.00000000E+00  0.00000000E+00
  0.00000000E+00  0.00000000E+00  0.00000000E+00
  0.00000000E+00  0.00000000E+00  0.00000000E+00
  0.00000000E+00  0.00000000E+00  0.00000000E+00
  0.00000000E+00  0.00000000E+00  0.00000000E+00
  0.00000000E+00  0.00000000E+00  0.00000000E+00
  0.00000000E+00  0.00000000E+00  0.00000000E+00
  0.00000000E+00  0.00000000E+00  0.00000000E+00
  0.00000000E+00  0.00000000E+00  0.00000000E+00
  0.00000000E+00  0.00000000E+00  0.00000000E+00
  0.00000000E+00  0.00000000E+00  0.00000000E+00
  0.00000000E+00  0.00000000E+00  0.00000000E+00
  0.00000000E+00  0.00000000E+00  0.00000000E+00
  0.00000000E+00  0.00000000E+00  0.00000000E+00
  0.00000000E+00  0.00000000E+00  0.00000000E+00
  0.00000000E+00  0.00000000E+00  0.00000000E+00
  0.00000000E+00  0.00000000E+00  0.00000000E+00
  0.00000000E+00  0.00000000E+00  0.00000000E+00
  0.00000000E+00  0.00000000E+00  0.00000000E+00
  0.00000000E+00  0.00000000E+00  0.00000000E+00
  0.00000000E+00  0.00000000E+00  0.00000000E+00
  0.00000000E+00  0.00000000E+00  0.00000000E+00
  0.00000000E+00  0.00000000E+00  0.00000000E+00
  0.00000000E+00  0.00000000E+00  0.00000000E+00
  0.00000000E+00  0.00000000E+00  0.00000000E+00
  0.00000000E+00  0.00000000E+00  0.00000000E+00
  0.00000000E+00  0.00000000E+00  0.00000000E+00
  0.00000000E+00  0.00000000E+00  0.00000000E+00
  0.00000000E+00  0.00000000E+00  0.00000000E+00
  0.00000000E+00  0.00000000E+00  0.00000000E+00
  0.00000000E+00  0.00000000E+00  0.00000000E+00
  0.00000000E+00  0.00000000E+00  0.00000000E+00
  0.00000000E+00  0.00000000E+00  0.00000000E+00
  0.00000000E+00  0.00000000E+00  0.00000000E+00
  0.00000000E+00  0.00000000E+00  0.00000000E+00
  0.00000000E+00  0.00000000E+00  0.00000000E+00
  0.00000000E+00  0.00000000E+00  0.00000000E+00
  0.00000000E+00  0.00000000E+00  0.00000000E+00
