POSCAR Generated by VLAtoms at MaterialsSquare.com
1.0
26.41803 0.00000 0.00000
0.00000 20.70275 0.00000
0.00000 0.00000 21.17220
Cd Ge Bi O 
32 32 64 192 
Direct
0.05403 0.19306 0.25000 
0.16208 0.30694 0.25000 
0.16208 0.05694 0.00000 
0.05403 0.44306 0.00000 
0.05403 0.19306 0.75000 
0.16208 0.30694 0.75000 
0.16208 0.05694 0.50000 
0.05403 0.44306 0.50000 
0.05403 0.69306 0.25000 
0.16208 0.80694 0.25000 
0.16208 0.55694 0.00000 
0.05403 0.94306 0.00000 
0.05403 0.69306 0.75000 
0.16208 0.80694 0.75000 
0.16208 0.55694 0.50000 
0.05403 0.94306 0.50000 
0.27013 0.19306 0.25000 
0.37818 0.30694 0.25000 
0.37818 0.05694 0.00000 
0.27013 0.44306 0.00000 
0.27013 0.19306 0.75000 
0.37818 0.30694 0.75000 
0.37818 0.05694 0.50000 
0.27013 0.44306 0.50000 
0.27013 0.69306 0.25000 
0.37818 0.80694 0.25000 
0.37818 0.55694 0.00000 
0.27013 0.94306 0.00000 
0.27013 0.69306 0.75000 
0.37818 0.80694 0.75000 
0.37818 0.55694 0.50000 
0.27013 0.94306 0.50000 
0.05403 0.42318 0.25000 
0.16208 0.32682 0.00000 
0.16208 0.07682 0.25000 
0.05403 0.17318 0.00000 
0.05403 0.42318 0.75000 
0.16208 0.32682 0.50000 
0.16208 0.07682 0.75000 
0.05403 0.17318 0.50000 
0.05403 0.92318 0.25000 
0.16208 0.82682 0.00000 
0.16208 0.57682 0.25000 
0.05403 0.67318 0.00000 
0.05403 0.92318 0.75000 
0.16208 0.82682 0.50000 
0.16208 0.57682 0.75000 
0.05403 0.67318 0.50000 
0.27013 0.42318 0.25000 
0.37818 0.32682 0.00000 
0.37818 0.07682 0.25000 
0.27013 0.17318 0.00000 
0.27013 0.42318 0.75000 
0.37818 0.32682 0.50000 
0.37818 0.07682 0.75000 
0.27013 0.17318 0.50000 
0.27013 0.92318 0.25000 
0.37818 0.82682 0.00000 
0.37818 0.57682 0.25000 
0.27013 0.67318 0.00000 
0.27013 0.92318 0.75000 
0.37818 0.82682 0.50000 
0.37818 0.57682 0.75000 
0.27013 0.67318 0.50000 
0.04645 0.30371 0.37941 
0.16965 0.19629 0.12059 
0.15450 0.19629 0.37941 
0.04645 0.05371 0.37059 
0.06160 0.30371 0.12059 
0.16965 0.44629 0.12941 
0.06160 0.05371 0.12941 
0.15450 0.44629 0.37059 
0.04645 0.30371 0.87941 
0.16965 0.19629 0.62059 
0.15450 0.19629 0.87941 
0.04645 0.05371 0.87059 
0.06160 0.30371 0.62059 
0.16965 0.44629 0.62941 
0.06160 0.05371 0.62941 
0.15450 0.44629 0.87059 
0.04645 0.80371 0.37941 
0.16965 0.69629 0.12059 
0.15450 0.69629 0.37941 
0.04645 0.55371 0.37059 
0.06160 0.80371 0.12059 
0.16965 0.94629 0.12941 
0.06160 0.55371 0.12941 
0.15450 0.94629 0.37059 
0.04645 0.80371 0.87941 
0.16965 0.69629 0.62059 
0.15450 0.69629 0.87941 
0.04645 0.55371 0.87059 
0.06160 0.80371 0.62059 
0.16965 0.94629 0.62941 
0.06160 0.55371 0.62941 
0.15450 0.94629 0.87059 
0.26255 0.30371 0.37941 
0.38576 0.19629 0.12059 
0.37060 0.19629 0.37941 
0.26255 0.05371 0.37059 
0.27770 0.30371 0.12059 
0.38576 0.44629 0.12941 
0.27770 0.05371 0.12941 
0.37060 0.44629 0.37059 
0.26255 0.30371 0.87941 
0.38576 0.19629 0.62059 
0.37060 0.19629 0.87941 
0.26255 0.05371 0.87059 
0.27770 0.30371 0.62059 
0.38576 0.44629 0.62941 
0.27770 0.05371 0.62941 
0.37060 0.44629 0.87059 
0.26255 0.80371 0.37941 
0.38576 0.69629 0.12059 
0.37060 0.69629 0.37941 
0.26255 0.55371 0.37059 
0.27770 0.80371 0.12059 
0.38576 0.94629 0.12941 
0.27770 0.55371 0.12941 
0.37060 0.94629 0.37059 
0.26255 0.80371 0.87941 
0.38576 0.69629 0.62059 
0.37060 0.69629 0.87941 
0.26255 0.55371 0.87059 
0.27770 0.80371 0.62059 
0.38576 0.94629 0.62941 
0.27770 0.55371 0.62941 
0.37060 0.94629 0.87059 
0.02702 0.47210 0.18909 
0.20854 0.12481 0.21076 
0.00291 0.23518 0.32330 
0.00756 0.37519 0.28924 
0.13507 0.02790 0.18909 
0.21319 0.01482 0.07330 
0.11096 0.01482 0.42670 
0.10514 0.48518 0.07330 
0.18908 0.27790 0.43909 
0.08103 0.47210 0.31091 
0.11562 0.12481 0.28924 
0.21319 0.26482 0.17670 
0.10049 0.37519 0.21076 
0.10514 0.23518 0.17670 
0.18908 0.02790 0.31091 
0.10049 0.12519 0.03924 
0.00756 0.12519 0.46076 
0.00291 0.48518 0.42670 
0.11096 0.26482 0.32330 
0.08103 0.22210 0.43909 
0.02702 0.22210 0.06091 
0.20854 0.37481 0.03924 
0.13507 0.27790 0.06091 
0.11562 0.37481 0.46076 
0.02702 0.47210 0.68909 
0.20854 0.12481 0.71076 
0.00291 0.23518 0.82330 
0.00756 0.37519 0.78924 
0.13507 0.02790 0.68909 
0.21319 0.01482 0.57330 
0.11096 0.01482 0.92670 
0.10514 0.48518 0.57330 
0.18908 0.27790 0.93909 
0.08103 0.47210 0.81091 
0.11562 0.12481 0.78924 
0.21319 0.26482 0.67670 
0.10049 0.37519 0.71076 
0.10514 0.23518 0.67670 
0.18908 0.02790 0.81091 
0.10049 0.12519 0.53924 
0.00756 0.12519 0.96076 
0.00291 0.48518 0.92670 
0.11096 0.26482 0.82330 
0.08103 0.22210 0.93909 
0.02702 0.22210 0.56091 
0.20854 0.37481 0.53924 
0.13507 0.27790 0.56091 
0.11562 0.37481 0.96076 
0.02702 0.97210 0.18909 
0.20854 0.62481 0.21076 
0.00291 0.73518 0.32330 
0.00756 0.87519 0.28924 
0.13507 0.52790 0.18909 
0.21319 0.51482 0.07330 
0.11096 0.51482 0.42670 
0.10514 0.98518 0.07330 
0.18908 0.77790 0.43909 
0.08103 0.97210 0.31091 
0.11562 0.62481 0.28924 
0.21319 0.76482 0.17670 
0.10049 0.87519 0.21076 
0.10514 0.73518 0.17670 
0.18908 0.52790 0.31091 
0.10049 0.62519 0.03924 
0.00756 0.62519 0.46076 
0.00291 0.98518 0.42670 
0.11096 0.76482 0.32330 
0.08103 0.72210 0.43909 
0.02702 0.72210 0.06091 
0.20854 0.87481 0.03924 
0.13507 0.77790 0.06091 
0.11562 0.87481 0.46076 
0.02702 0.97210 0.68909 
0.20854 0.62481 0.71076 
0.00291 0.73518 0.82330 
0.00756 0.87519 0.78924 
0.13507 0.52790 0.68909 
0.21319 0.51482 0.57330 
0.11096 0.51482 0.92670 
0.10514 0.98518 0.57330 
0.18908 0.77790 0.93909 
0.08103 0.97210 0.81091 
0.11562 0.62481 0.78924 
0.21319 0.76482 0.67670 
0.10049 0.87519 0.71076 
0.10514 0.73518 0.67670 
0.18908 0.52790 0.81091 
0.10049 0.62519 0.53924 
0.00756 0.62519 0.96076 
0.00291 0.98518 0.92670 
0.11096 0.76482 0.82330 
0.08103 0.72210 0.93909 
0.02702 0.72210 0.56091 
0.20854 0.87481 0.53924 
0.13507 0.77790 0.56091 
0.11562 0.87481 0.96076 
0.24312 0.47210 0.18909 
0.42464 0.12481 0.21076 
0.21901 0.23518 0.32330 
0.22367 0.37519 0.28924 
0.35117 0.02790 0.18909 
0.42930 0.01482 0.07330 
0.32706 0.01482 0.42670 
0.32125 0.48518 0.07330 
0.40519 0.27790 0.43909 
0.29713 0.47210 0.31091 
0.33172 0.12481 0.28924 
0.42930 0.26482 0.17670 
0.31659 0.37519 0.21076 
0.32125 0.23518 0.17670 
0.40519 0.02790 0.31091 
0.31659 0.12519 0.03924 
0.22367 0.12519 0.46076 
0.21901 0.48518 0.42670 
0.32706 0.26482 0.32330 
0.29713 0.22210 0.43909 
0.24312 0.22210 0.06091 
0.42464 0.37481 0.03924 
0.35117 0.27790 0.06091 
0.33172 0.37481 0.46076 
0.24312 0.47210 0.68909 
0.42464 0.12481 0.71076 
0.21901 0.23518 0.82330 
0.22367 0.37519 0.78924 
0.35117 0.02790 0.68909 
0.42930 0.01482 0.57330 
0.32706 0.01482 0.92670 
0.32125 0.48518 0.57330 
0.40519 0.27790 0.93909 
0.29713 0.47210 0.81091 
0.33172 0.12481 0.78924 
0.42930 0.26482 0.67670 
0.31659 0.37519 0.71076 
0.32125 0.23518 0.67670 
0.40519 0.02790 0.81091 
0.31659 0.12519 0.53924 
0.22367 0.12519 0.96076 
0.21901 0.48518 0.92670 
0.32706 0.26482 0.82330 
0.29713 0.22210 0.93909 
0.24312 0.22210 0.56091 
0.42464 0.37481 0.53924 
0.35117 0.27790 0.56091 
0.33172 0.37481 0.96076 
0.24312 0.97210 0.18909 
0.42464 0.62481 0.21076 
0.21901 0.73518 0.32330 
0.22367 0.87519 0.28924 
0.35117 0.52790 0.18909 
0.42930 0.51482 0.07330 
0.32706 0.51482 0.42670 
0.32125 0.98518 0.07330 
0.40519 0.77790 0.43909 
0.29713 0.97210 0.31091 
0.33172 0.62481 0.28924 
0.42930 0.76482 0.17670 
0.31659 0.87519 0.21076 
0.32125 0.73518 0.17670 
0.40519 0.52790 0.31091 
0.31659 0.62519 0.03924 
0.22367 0.62519 0.46076 
0.21901 0.98518 0.42670 
0.32706 0.76482 0.32330 
0.29713 0.72210 0.43909 
0.24312 0.72210 0.06091 
0.42464 0.87481 0.03924 
0.35117 0.77790 0.06091 
0.33172 0.87481 0.46076 
0.24312 0.97210 0.68909 
0.42464 0.62481 0.71076 
0.21901 0.73518 0.82330 
0.22367 0.87519 0.78924 
0.35117 0.52790 0.68909 
0.42930 0.51482 0.57330 
0.32706 0.51482 0.92670 
0.32125 0.98518 0.57330 
0.40519 0.77790 0.93909 
0.29713 0.97210 0.81091 
0.33172 0.62481 0.78924 
0.42930 0.76482 0.67670 
0.31659 0.87519 0.71076 
0.32125 0.73518 0.67670 
0.40519 0.52790 0.81091 
0.31659 0.62519 0.53924 
0.22367 0.62519 0.96076 
0.21901 0.98518 0.92670 
0.32706 0.76482 0.82330 
0.29713 0.72210 0.93909 
0.24312 0.72210 0.56091 
0.42464 0.87481 0.53924 
0.35117 0.77790 0.56091 
0.33172 0.87481 0.96076