POSCAR Generated by VLAtoms at MaterialsSquare.com
1.0
29.22618 0.00000 0.00000
0.00000 21.30899 0.00000
0.00000 0.00000 21.47824
K P H O 
64 64 128 256 
Direct
0.05973 0.12500 0.37500 
0.24227 -0.00000 0.25000 
0.18142 0.12500 0.12500 
0.12058 0.00000 0.00000 
0.18142 0.37500 0.37500 
0.12058 0.25000 0.25000 
0.05973 0.37500 0.12500 
0.24227 0.25000 0.00000 
0.05973 0.12500 0.87500 
0.24227 -0.00000 0.75000 
0.18142 0.12500 0.62500 
0.12058 -0.00000 0.50000 
0.18142 0.37500 0.87500 
0.12058 0.25000 0.75000 
0.05973 0.37500 0.62500 
0.24227 0.25000 0.50000 
0.05973 0.62500 0.37500 
0.24227 0.50000 0.25000 
0.18142 0.62500 0.12500 
0.12058 0.50000 0.00000 
0.18142 0.87500 0.37500 
0.12058 0.75000 0.25000 
0.05973 0.87500 0.12500 
0.24227 0.75000 0.00000 
0.05973 0.62500 0.87500 
0.24227 0.50000 0.75000 
0.18142 0.62500 0.62500 
0.12058 0.50000 0.50000 
0.18142 0.87500 0.87500 
0.12058 0.75000 0.75000 
0.05973 0.87500 0.62500 
0.24227 0.75000 0.50000 
0.30311 0.12500 0.37500 
0.48565 -0.00000 0.25000 
0.42480 0.12500 0.12500 
0.36396 0.00000 0.00000 
0.42480 0.37500 0.37500 
0.36396 0.25000 0.25000 
0.30311 0.37500 0.12500 
0.48565 0.25000 0.00000 
0.30311 0.12500 0.87500 
0.48565 -0.00000 0.75000 
0.42480 0.12500 0.62500 
0.36396 -0.00000 0.50000 
0.42480 0.37500 0.87500 
0.36396 0.25000 0.75000 
0.30311 0.37500 0.62500 
0.48565 0.25000 0.50000 
0.30311 0.62500 0.37500 
0.48565 0.50000 0.25000 
0.42480 0.62500 0.12500 
0.36396 0.50000 0.00000 
0.42480 0.87500 0.37500 
0.36396 0.75000 0.25000 
0.30311 0.87500 0.12500 
0.48565 0.75000 0.00000 
0.30311 0.62500 0.87500 
0.48565 0.50000 0.75000 
0.42480 0.62500 0.62500 
0.36396 0.50000 0.50000 
0.42480 0.87500 0.87500 
0.36396 0.75000 0.75000 
0.30311 0.87500 0.62500 
0.48565 0.75000 0.50000 
0.06449 0.37500 0.37500 
0.12533 -0.00000 0.25000 
0.18618 0.37500 0.12500 
0.00364 0.00000 0.00000 
0.18618 0.12500 0.37500 
0.00364 0.25000 0.25000 
0.06449 0.12500 0.12500 
0.12533 0.25000 0.00000 
0.06449 0.37500 0.87500 
0.12533 -0.00000 0.75000 
0.18618 0.37500 0.62500 
0.00364 -0.00000 0.50000 
0.18618 0.12500 0.87500 
0.00364 0.25000 0.75000 
0.06449 0.12500 0.62500 
0.12533 0.25000 0.50000 
0.06449 0.87500 0.37500 
0.12533 0.50000 0.25000 
0.18618 0.87500 0.12500 
0.00364 0.50000 0.00000 
0.18618 0.62500 0.37500 
0.00364 0.75000 0.25000 
0.06449 0.62500 0.12500 
0.12533 0.75000 0.00000 
0.06449 0.87500 0.87500 
0.12533 0.50000 0.75000 
0.18618 0.87500 0.62500 
0.00364 0.50000 0.50000 
0.18618 0.62500 0.87500 
0.00364 0.75000 0.75000 
0.06449 0.62500 0.62500 
0.12533 0.75000 0.50000 
0.30787 0.37500 0.37500 
0.36871 -0.00000 0.25000 
0.42956 0.37500 0.12500 
0.24702 0.00000 0.00000 
0.42956 0.12500 0.37500 
0.24702 0.25000 0.25000 
0.30787 0.12500 0.12500 
0.36871 0.25000 0.00000 
0.30787 0.37500 0.87500 
0.36871 -0.00000 0.75000 
0.42956 0.37500 0.62500 
0.24702 -0.00000 0.50000 
0.42956 0.12500 0.87500 
0.24702 0.25000 0.75000 
0.30787 0.12500 0.62500 
0.36871 0.25000 0.50000 
0.30787 0.87500 0.37500 
0.36871 0.50000 0.25000 
0.42956 0.87500 0.12500 
0.24702 0.50000 0.00000 
0.42956 0.62500 0.37500 
0.24702 0.75000 0.25000 
0.30787 0.62500 0.12500 
0.36871 0.75000 0.00000 
0.30787 0.87500 0.87500 
0.36871 0.50000 0.75000 
0.42956 0.87500 0.62500 
0.24702 0.50000 0.50000 
0.42956 0.62500 0.87500 
0.24702 0.75000 0.75000 
0.30787 0.62500 0.62500 
0.36871 0.75000 0.50000 
0.21445 0.01923 0.40823 
0.09275 0.48077 0.34177 
0.03191 0.35577 0.28323 
0.15360 0.14423 0.46677 
0.09275 0.01923 0.15823 
0.21445 0.48077 0.09177 
0.15360 0.35577 0.03323 
0.03191 0.14423 0.21677 
0.09275 0.26923 0.40823 
0.21445 0.23077 0.34177 
0.15360 0.10577 0.28323 
0.03191 0.39423 0.46677 
0.21445 0.26923 0.15823 
0.09275 0.23077 0.09177 
0.03191 0.10577 0.03323 
0.15360 0.39423 0.21677 
0.21445 0.01923 0.90823 
0.09275 0.48077 0.84177 
0.03191 0.35577 0.78323 
0.15360 0.14423 0.96677 
0.09275 0.01923 0.65823 
0.21445 0.48077 0.59177 
0.15360 0.35577 0.53323 
0.03191 0.14423 0.71677 
0.09275 0.26923 0.90823 
0.21445 0.23077 0.84177 
0.15360 0.10577 0.78323 
0.03191 0.39423 0.96677 
0.21445 0.26923 0.65823 
0.09275 0.23077 0.59177 
0.03191 0.10577 0.53323 
0.15360 0.39423 0.71677 
0.21445 0.51923 0.40823 
0.09275 0.98077 0.34177 
0.03191 0.85577 0.28323 
0.15360 0.64423 0.46677 
0.09275 0.51923 0.15823 
0.21445 0.98077 0.09177 
0.15360 0.85577 0.03323 
0.03191 0.64423 0.21677 
0.09275 0.76923 0.40823 
0.21445 0.73077 0.34177 
0.15360 0.60577 0.28323 
0.03191 0.89423 0.46677 
0.21445 0.76923 0.15823 
0.09275 0.73077 0.09177 
0.03191 0.60577 0.03323 
0.15360 0.89423 0.21677 
0.21445 0.51923 0.90823 
0.09275 0.98077 0.84177 
0.03191 0.85577 0.78323 
0.15360 0.64423 0.96677 
0.09275 0.51923 0.65823 
0.21445 0.98077 0.59177 
0.15360 0.85577 0.53323 
0.03191 0.64423 0.71677 
0.09275 0.76923 0.90823 
0.21445 0.73077 0.84177 
0.15360 0.60577 0.78323 
0.03191 0.89423 0.96677 
0.21445 0.76923 0.65823 
0.09275 0.73077 0.59177 
0.03191 0.60577 0.53323 
0.15360 0.89423 0.71677 
0.45783 0.01923 0.40823 
0.33614 0.48077 0.34177 
0.27529 0.35577 0.28323 
0.39698 0.14423 0.46677 
0.33614 0.01923 0.15823 
0.45783 0.48077 0.09177 
0.39698 0.35577 0.03323 
0.27529 0.14423 0.21677 
0.33614 0.26923 0.40823 
0.45783 0.23077 0.34177 
0.39698 0.10577 0.28323 
0.27529 0.39423 0.46677 
0.45783 0.26923 0.15823 
0.33614 0.23077 0.09177 
0.27529 0.10577 0.03323 
0.39698 0.39423 0.21677 
0.45783 0.01923 0.90823 
0.33614 0.48077 0.84177 
0.27529 0.35577 0.78323 
0.39698 0.14423 0.96677 
0.33614 0.01923 0.65823 
0.45783 0.48077 0.59177 
0.39698 0.35577 0.53323 
0.27529 0.14423 0.71677 
0.33614 0.26923 0.90823 
0.45783 0.23077 0.84177 
0.39698 0.10577 0.78323 
0.27529 0.39423 0.96677 
0.45783 0.26923 0.65823 
0.33614 0.23077 0.59177 
0.27529 0.10577 0.53323 
0.39698 0.39423 0.71677 
0.45783 0.51923 0.40823 
0.33614 0.98077 0.34177 
0.27529 0.85577 0.28323 
0.39698 0.64423 0.46677 
0.33614 0.51923 0.15823 
0.45783 0.98077 0.09177 
0.39698 0.85577 0.03323 
0.27529 0.64423 0.21677 
0.33614 0.76923 0.40823 
0.45783 0.73077 0.34177 
0.39698 0.60577 0.28323 
0.27529 0.89423 0.46677 
0.45783 0.76923 0.15823 
0.33614 0.73077 0.09177 
0.27529 0.60577 0.03323 
0.39698 0.89423 0.21677 
0.45783 0.51923 0.90823 
0.33614 0.98077 0.84177 
0.27529 0.85577 0.78323 
0.39698 0.64423 0.96677 
0.33614 0.51923 0.65823 
0.45783 0.98077 0.59177 
0.39698 0.85577 0.53323 
0.27529 0.64423 0.71677 
0.33614 0.76923 0.90823 
0.45783 0.73077 0.84177 
0.39698 0.60577 0.78323 
0.27529 0.89423 0.96677 
0.45783 0.76923 0.65823 
0.33614 0.73077 0.59177 
0.27529 0.60577 0.53323 
0.39698 0.89423 0.71677 
0.03167 0.19145 0.26570 
0.03167 0.05855 0.48430 
0.09251 0.43355 0.39070 
0.21420 0.06645 0.35930 
0.09252 0.01599 0.30711 
0.09252 0.23401 0.44289 
0.15336 0.10901 0.43211 
0.03167 0.39099 0.31789 
0.15336 0.19145 0.01570 
0.15336 0.05855 0.23430 
0.21420 0.43355 0.14070 
0.09251 0.06645 0.10930 
0.21421 0.01599 0.05711 
0.21421 0.23401 0.19289 
0.03167 0.10901 0.18211 
0.15336 0.39099 0.06789 
0.15336 0.44145 0.26570 
0.15336 0.30855 0.48430 
0.21420 0.18355 0.39070 
0.09251 0.31645 0.35930 
0.21421 0.26599 0.30711 
0.21421 0.48401 0.44289 
0.03167 0.35901 0.43211 
0.15336 0.14099 0.31789 
0.03167 0.44145 0.01570 
0.03167 0.30855 0.23430 
0.09251 0.18355 0.14070 
0.21420 0.31645 0.10930 
0.09252 0.26599 0.05711 
0.09252 0.48401 0.19289 
0.15336 0.35901 0.18211 
0.03167 0.14099 0.06789 
0.03167 0.19145 0.76570 
0.03167 0.05855 0.98430 
0.09251 0.43355 0.89070 
0.21420 0.06645 0.85930 
0.09252 0.01599 0.80711 
0.09252 0.23401 0.94289 
0.15336 0.10901 0.93211 
0.03167 0.39099 0.81789 
0.15336 0.19145 0.51570 
0.15336 0.05855 0.73430 
0.21420 0.43355 0.64070 
0.09251 0.06645 0.60930 
0.21421 0.01599 0.55711 
0.21421 0.23401 0.69289 
0.03167 0.10901 0.68211 
0.15336 0.39099 0.56789 
0.15336 0.44145 0.76570 
0.15336 0.30855 0.98430 
0.21420 0.18355 0.89070 
0.09251 0.31645 0.85930 
0.21421 0.26599 0.80711 
0.21421 0.48401 0.94289 
0.03167 0.35901 0.93211 
0.15336 0.14099 0.81789 
0.03167 0.44145 0.51570 
0.03167 0.30855 0.73430 
0.09251 0.18355 0.64070 
0.21420 0.31645 0.60930 
0.09252 0.26599 0.55711 
0.09252 0.48401 0.69289 
0.15336 0.35901 0.68211 
0.03167 0.14099 0.56789 
0.03167 0.69145 0.26570 
0.03167 0.55855 0.48430 
0.09251 0.93355 0.39070 
0.21420 0.56645 0.35930 
0.09252 0.51599 0.30711 
0.09252 0.73401 0.44289 
0.15336 0.60901 0.43211 
0.03167 0.89099 0.31789 
0.15336 0.69145 0.01570 
0.15336 0.55855 0.23430 
0.21420 0.93355 0.14070 
0.09251 0.56645 0.10930 
0.21421 0.51599 0.05711 
0.21421 0.73401 0.19289 
0.03167 0.60901 0.18211 
0.15336 0.89099 0.06789 
0.15336 0.94145 0.26570 
0.15336 0.80855 0.48430 
0.21420 0.68355 0.39070 
0.09251 0.81645 0.35930 
0.21421 0.76599 0.30711 
0.21421 0.98401 0.44289 
0.03167 0.85901 0.43211 
0.15336 0.64099 0.31789 
0.03167 0.94145 0.01570 
0.03167 0.80855 0.23430 
0.09251 0.68355 0.14070 
0.21420 0.81645 0.10930 
0.09252 0.76599 0.05711 
0.09252 0.98401 0.19289 
0.15336 0.85901 0.18211 
0.03167 0.64099 0.06789 
0.03167 0.69145 0.76570 
0.03167 0.55855 0.98430 
0.09251 0.93355 0.89070 
0.21420 0.56645 0.85930 
0.09252 0.51599 0.80711 
0.09252 0.73401 0.94289 
0.15336 0.60901 0.93211 
0.03167 0.89099 0.81789 
0.15336 0.69145 0.51570 
0.15336 0.55855 0.73430 
0.21420 0.93355 0.64070 
0.09251 0.56645 0.60930 
0.21421 0.51599 0.55711 
0.21421 0.73401 0.69289 
0.03167 0.60901 0.68211 
0.15336 0.89099 0.56789 
0.15336 0.94145 0.76570 
0.15336 0.80855 0.98430 
0.21420 0.68355 0.89070 
0.09251 0.81645 0.85930 
0.21421 0.76599 0.80711 
0.21421 0.98401 0.94289 
0.03167 0.85901 0.93211 
0.15336 0.64099 0.81789 
0.03167 0.94145 0.51570 
0.03167 0.80855 0.73430 
0.09251 0.68355 0.64070 
0.21420 0.81645 0.60930 
0.09252 0.76599 0.55711 
0.09252 0.98401 0.69289 
0.15336 0.85901 0.68211 
0.03167 0.64099 0.56789 
0.27505 0.19145 0.26570 
0.27505 0.05855 0.48430 
0.33589 0.43355 0.39070 
0.45758 0.06645 0.35930 
0.33590 0.01599 0.30711 
0.33590 0.23401 0.44289 
0.39674 0.10901 0.43211 
0.27505 0.39099 0.31789 
0.39674 0.19145 0.01570 
0.39674 0.05855 0.23430 
0.45758 0.43355 0.14070 
0.33589 0.06645 0.10930 
0.45759 0.01599 0.05711 
0.45759 0.23401 0.19289 
0.27505 0.10901 0.18211 
0.39674 0.39099 0.06789 
0.39674 0.44145 0.26570 
0.39674 0.30855 0.48430 
0.45758 0.18355 0.39070 
0.33589 0.31645 0.35930 
0.45759 0.26599 0.30711 
0.45759 0.48401 0.44289 
0.27505 0.35901 0.43211 
0.39674 0.14099 0.31789 
0.27505 0.44145 0.01570 
0.27505 0.30855 0.23430 
0.33589 0.18355 0.14070 
0.45758 0.31645 0.10930 
0.33590 0.26599 0.05711 
0.33590 0.48401 0.19289 
0.39674 0.35901 0.18211 
0.27505 0.14099 0.06789 
0.27505 0.19145 0.76570 
0.27505 0.05855 0.98430 
0.33589 0.43355 0.89070 
0.45758 0.06645 0.85930 
0.33590 0.01599 0.80711 
0.33590 0.23401 0.94289 
0.39674 0.10901 0.93211 
0.27505 0.39099 0.81789 
0.39674 0.19145 0.51570 
0.39674 0.05855 0.73430 
0.45758 0.43355 0.64070 
0.33589 0.06645 0.60930 
0.45759 0.01599 0.55711 
0.45759 0.23401 0.69289 
0.27505 0.10901 0.68211 
0.39674 0.39099 0.56789 
0.39674 0.44145 0.76570 
0.39674 0.30855 0.98430 
0.45758 0.18355 0.89070 
0.33589 0.31645 0.85930 
0.45759 0.26599 0.80711 
0.45759 0.48401 0.94289 
0.27505 0.35901 0.93211 
0.39674 0.14099 0.81789 
0.27505 0.44145 0.51570 
0.27505 0.30855 0.73430 
0.33589 0.18355 0.64070 
0.45758 0.31645 0.60930 
0.33590 0.26599 0.55711 
0.33590 0.48401 0.69289 
0.39674 0.35901 0.68211 
0.27505 0.14099 0.56789 
0.27505 0.69145 0.26570 
0.27505 0.55855 0.48430 
0.33589 0.93355 0.39070 
0.45758 0.56645 0.35930 
0.33590 0.51599 0.30711 
0.33590 0.73401 0.44289 
0.39674 0.60901 0.43211 
0.27505 0.89099 0.31789 
0.39674 0.69145 0.01570 
0.39674 0.55855 0.23430 
0.45758 0.93355 0.14070 
0.33589 0.56645 0.10930 
0.45759 0.51599 0.05711 
0.45759 0.73401 0.19289 
0.27505 0.60901 0.18211 
0.39674 0.89099 0.06789 
0.39674 0.94145 0.26570 
0.39674 0.80855 0.48430 
0.45758 0.68355 0.39070 
0.33589 0.81645 0.35930 
0.45759 0.76599 0.30711 
0.45759 0.98401 0.44289 
0.27505 0.85901 0.43211 
0.39674 0.64099 0.31789 
0.27505 0.94145 0.01570 
0.27505 0.80855 0.23430 
0.33589 0.68355 0.14070 
0.45758 0.81645 0.10930 
0.33590 0.76599 0.05711 
0.33590 0.98401 0.19289 
0.39674 0.85901 0.18211 
0.27505 0.64099 0.06789 
0.27505 0.69145 0.76570 
0.27505 0.55855 0.98430 
0.33589 0.93355 0.89070 
0.45758 0.56645 0.85930 
0.33590 0.51599 0.80711 
0.33590 0.73401 0.94289 
0.39674 0.60901 0.93211 
0.27505 0.89099 0.81789 
0.39674 0.69145 0.51570 
0.39674 0.55855 0.73430 
0.45758 0.93355 0.64070 
0.33589 0.56645 0.60930 
0.45759 0.51599 0.55711 
0.45759 0.73401 0.69289 
0.27505 0.60901 0.68211 
0.39674 0.89099 0.56789 
0.39674 0.94145 0.76570 
0.39674 0.80855 0.98430 
0.45758 0.68355 0.89070 
0.33589 0.81645 0.85930 
0.45759 0.76599 0.80711 
0.45759 0.98401 0.94289 
0.27505 0.85901 0.93211 
0.39674 0.64099 0.81789 
0.27505 0.94145 0.51570 
0.27505 0.80855 0.73430 
0.33589 0.68355 0.64070 
0.45758 0.81645 0.60930 
0.33590 0.76599 0.55711 
0.33590 0.98401 0.69289 
0.39674 0.85901 0.68211 
0.27505 0.64099 0.56789