Pt
1.0
  2.774404166664   0.000000000000   0.000000000000
  0.000000000000   2.774404166664   0.000000000000
  0.000000000000   0.000000000000  21.770800000000
Pt
  6
Selective dynamics
Direct
  0.500000000000   0.500000000000   0.090111525530  T T T
  0.000000000000   0.000000000000   0.180223051059  T T T
  0.500000000000   0.500000000000   0.270334576589  T T T
  0.000000000000   0.000000000000   0.360446102118  T T T
  0.500000000000   0.500000000000   0.450557627648  T T T
  0.000000000000   0.000000000000   0.540669153178  T T T
